65
Lattice="9.859190093031751 1.2243099745877253e-17 -5.4657231986688855e-18 -4.9295950465158755 8.538309081305215 4.233250727167818e-14 -3.9313443161442645e-16 2.4342209429117815e-14 6.836130583950681" Properties=species:S:1:pos:R:3:forces:R:3 stress="4.9687858834357446e-08 4.584434729189051e-16 -1.3556177320816108e-16 4.584434729189051e-16 4.968779978350296e-08 -9.55100812264198e-17 -1.3556177320816108e-16 -9.55100812264198e-17 -0.00011287750628587861" energy=-601.2043785522679 pbc="T T T"
C        0.00000000      -0.01022111       1.89759340      -0.00000000      -0.00001149       0.00000822
C        0.00000000       1.42305151       1.98556181       0.00000000       0.00000000       0.00000087
C        0.00000000      -0.00953672       4.94953285      -0.00000000       0.00000717      -0.00001030
C        1.24089315       0.70662152       4.94440583       0.00000805      -0.00000465      -0.00000786
C       -1.24125050       2.13968782       1.89759340      -0.00000995       0.00000575       0.00000822
C       -1.23478987       3.56325566       1.82760491       0.00005431       0.00000546       0.00001348
C       -1.24065780       2.13934563       4.94953285       0.00000621      -0.00000359      -0.00001030
C        0.00000000       2.85591151       4.94440583       0.00000000       0.00000930      -0.00000786
C       -2.46692069       4.27063517       1.75868031      -0.00008076      -0.00002883       0.00001317
C       -2.46431379       5.69248534       1.73714336       0.00009101       0.00005254       0.00001534
C       -2.46613887       4.27036362       5.08097098       0.00000053      -0.00000920      -0.00001549
C       -1.23278340       4.98250779       5.07858567      -0.00000045       0.00001438      -0.00001441
C       -3.69697561       6.40115278       1.75868031      -0.00006535      -0.00005553       0.00001317
C       -3.69351882       7.82189913       1.82760491       0.00003188       0.00004430       0.00001348
C       -3.69681987       6.40196563       5.08097098      -0.00000770       0.00000506      -0.00001549
C       -2.46340719       7.11401072       5.07858567       0.00001222      -0.00000758      -0.00001441
C        2.46703362      -0.00129101       1.79716163      -0.00004611       0.00002662       0.00001625
C        2.47086609       1.42230883       1.82760491      -0.00002242      -0.00004976       0.00001348
C        2.47175675      -0.00401791       5.03384606      -0.00001425       0.00000823      -0.00001384
C        3.69897126       0.71094512       5.07858567       0.00001268      -0.00000680      -0.00001441
C        1.24125050       2.13968782       1.89759340       0.00000995       0.00000575       0.00000822
C        1.23478987       3.56325566       1.82760491      -0.00005431       0.00000546       0.00001348
C        1.24065780       2.13934563       4.94953285      -0.00000621      -0.00000359      -0.00001030
C        2.47180928       2.85015127       5.03371061       0.00001010       0.00000583      -0.00001292
C        0.00000000       4.27173656       1.79716163      -0.00000000      -0.00005324       0.00001625
C        0.00000000       5.69414324       1.73756793       0.00000000       0.00003669       0.00001500
C        0.00000000       4.27719036       5.03384606      -0.00000000      -0.00001646      -0.00001384
C        1.23278340       4.98250779       5.07858567       0.00000045       0.00001438      -0.00001441
C       -1.23235511       6.40375701       1.72779123      -0.00006449      -0.00003724       0.00001677
C       -1.23072111       7.82581473       1.73756793       0.00003177      -0.00001834       0.00001500
C       -1.23150844       6.40424584       5.10436647      -0.00000967      -0.00000558      -0.00001511
C        0.00000000       7.11525757       5.11262340      -0.00000000       0.00000000      -0.00001499
C        4.92959505      -0.00005040       1.72779123       0.00000000       0.00007447       0.00001677
C        4.92959505       1.42249294       1.73714336      -0.00000000      -0.00010509       0.00001534
C        4.92959505      -0.00102805       5.10436647       0.00000000       0.00001116      -0.00001511
C        6.16021884       0.71094512       5.07858567      -0.00001268      -0.00000680      -0.00001441
C        3.69954013       2.13567568       1.75868031       0.00001541       0.00008435       0.00001317
C        3.69794309       3.55805995       1.74049874      -0.00006029      -0.00003481       0.00001691
C        3.69891405       2.13513437       5.08097098      -0.00000823       0.00000414      -0.00001549
C        4.92959505       2.84718628       5.10807308      -0.00000000       0.00000154      -0.00001617
C        2.46692069       4.27063517       1.75868031       0.00008076      -0.00002883       0.00001317
C        2.46431379       5.69248534       1.73714336      -0.00009101       0.00005254       0.00001534
C        2.46613887       4.27036362       5.08097098      -0.00000053      -0.00000920      -0.00001549
C        3.69813441       4.98013867       5.10807308       0.00000133      -0.00000077      -0.00001617
C        1.23235511       6.40375701       1.72779123       0.00006449      -0.00003724       0.00001677
C        1.23072111       7.82581473       1.73756793      -0.00003177      -0.00001834       0.00001500
C        1.23150844       6.40424584       5.10436647       0.00000967      -0.00000558      -0.00001511
C        2.46340719       7.11401072       5.07858567      -0.00001222      -0.00000758      -0.00001441
C        7.39215647      -0.00129101       1.79716163       0.00004611       0.00002662       0.00001625
C        7.38832400       1.42230883       1.82760491       0.00002242      -0.00004976       0.00001348
C        7.38743334      -0.00401791       5.03384606       0.00001425       0.00000823      -0.00001384
C        8.61829694       0.70662152       4.94440583      -0.00000805      -0.00000465      -0.00000786
C        6.15964996       2.13567568       1.75868031      -0.00001541       0.00008435       0.00001317
C        6.16124700       3.55805995       1.74049874       0.00006029      -0.00003481       0.00001691
C        6.16027605       2.13513437       5.08097098       0.00000823       0.00000414      -0.00001549
C        7.38738082       2.85015127       5.03371061      -0.00001010       0.00000583      -0.00001292
C        4.92959505       4.26915454       1.72391885       0.00000000       0.00000000       0.00001441
C        4.92959505       5.69134372       1.74049874      -0.00000000       0.00006962       0.00001691
C        4.92959505       4.26915454       5.11749211       0.00000000      -0.00000000      -0.00001620
C        6.16105568       4.98013867       5.10807308      -0.00000133      -0.00000077      -0.00001617
C        3.69697561       6.40115278       1.75868031       0.00006535      -0.00005553       0.00001317
C        3.69351882       7.82189913       1.82760491      -0.00003188       0.00004430       0.00001348
C        3.69681987       6.40196563       5.08097098       0.00000770       0.00000506      -0.00001549
C        4.92959505       7.10716109       5.03371061       0.00000000      -0.00001166      -0.00001292
Li       0.00000000       1.42305151      -0.09354224       0.00000000       0.00000000      -0.00000151
