4
Lattice="2.4646688995468877 2.629167611148203e-14 5.310898076901655e-17 -1.232334449773421 2.134465878924622 1.536183147336669e-16 2.369234330296309e-16 5.992700812722038e-16 6.61093577328048" Properties=species:S:1:pos:R:3:forces:R:3 stress="8.290039890528674e-05 3.605097912695699e-13 -1.7121491409634544e-17 3.605097912695699e-13 8.290039236440953e-05 -1.846570959852015e-17 -1.7121491409634544e-17 -1.846570959852015e-17 -4.741368581152525e-05" energy=-37.44940460413223 pbc="T T T"
C       -0.00000000       0.00000000       1.65273394       0.00000000      -0.00000000       0.00000000
C        0.00000000       1.42297725       1.65273394      -0.00000000       0.00000000      -0.00000000
C       -0.00000000      -0.00000000       4.95820183       0.00000000       0.00000000       0.00000000
C        1.23233445       0.71148863       4.95820183      -0.00000000      -0.00000000      -0.00000000
