7
Lattice="3.7296005034434048 2.153285854632806 1.1386846596815192e-16 -3.7296005034434057 2.153285854632806 1.1409410481680724e-16 -3.833783670312445e-17 1.8967441614493776e-16 3.6162410038646398" Properties=species:S:1:pos:R:3:forces:R:3 stress="-1.1629145533278984e-06 -4.503822287488557e-16 1.4649122558084447e-17 -4.503822287488557e-16 -1.1629145811806185e-06 -1.4507313066941995e-17 1.4649122558084447e-17 -1.4507313066941995e-17 9.522429827469453e-05" energy=-58.702386976167475 pbc="T T T"
C        0.00000000       1.43509684       0.00000000       0.00000000      -0.00084036       0.00000000
C        1.24283032       0.71754842       0.00000000      -0.00072777      -0.00042018       0.00000000
C        2.48677019       1.43573744       0.00000000       0.00072777       0.00042018       0.00000000
C        0.00000000       2.87147487       0.00000000       0.00000000       0.00084036       0.00000000
C       -2.48677019       1.43573744       0.00000000      -0.00072777       0.00042018       0.00000000
C       -1.24283032       0.71754842       0.00000000       0.00072777      -0.00042018       0.00000000
Li       0.00000000       0.00000000       1.80812050       0.00000000      -0.00000000      -0.00000000
