28
Lattice="7.4592010068868095 4.306571709265612 2.2773693193630385e-16 -7.459201006886811 4.306571709265612 2.281882096336145e-16 -3.833783670312445e-17 1.8967441614493776e-16 3.6162410038646398" Properties=species:S:1:pos:R:3:momenta:R:3 pbc="T T T"
C        0.03169249       1.47051947      -0.06738518       0.05469685      -1.35328270      -0.28686327
C        1.24592959       0.69727581      -0.05195223       0.06070776       0.79615813      -0.38295110
C        2.49248435       1.41112434       0.09737160       0.02507950       0.42670018      -0.63624990
C        0.04629200       2.85519487       0.03940991       0.06028404       0.37416910       0.33490331
C       -2.48171907       1.46313844      -0.06861458       0.39526511       0.06798798      -0.65023788
C       -1.22723065       0.69233552      -0.13865258       0.26910067       0.14776333      -0.06008249
Li      -0.17645472       0.05497134       1.74144220      -0.01586023       0.59586877      -0.11831302
C       -3.72673083       3.60682980       0.10477485       0.32090071      -0.79097065       0.97766126
C       -2.52132960       2.84499604       0.02039856       0.01247514       0.48084642       0.06383987
C       -1.21027325       3.57231380      -0.01184856       0.48865707      -0.27707035      -0.76018242
C       -3.72303874       5.04425162       0.09693205      -0.60349837      -0.64470877      -0.97428787
C       -6.25032169       3.59418682       0.03862029       0.00901474      -0.62006120       0.36721994
C       -5.01470477       2.90454423       0.05033847       0.21552771      -0.50431146      -0.91690420
Li      -3.75347535       2.03543135       1.78015147       0.52427767       1.07728480       0.01767427
C        3.71668134       3.57631040       0.06456362      -0.48124060       0.52278449       0.32152419
C        4.96986601       2.89840830      -0.05517659       0.41239774      -1.01349001       0.79019483
C        6.22069741       3.54423626      -0.16460220       0.98683512       0.03119432      -0.10563023
C        3.70535514       5.03649484       0.06611025      -0.58036901      -0.20857023       1.29002278
C        1.27657023       3.59841346       0.10981564       0.51502471       0.36733030       0.84831335
C        2.49653463       2.81000081       0.15077410      -0.28004789       0.73670949       0.24597876
Li       3.80844606       2.20273567       1.89790754      -0.17082952       0.29307605      -0.23567376
C        0.01935871       5.73736909      -0.12246536       0.13740842       1.32450806       0.85628646
C        1.26598752       5.00818360       0.01412806      -0.76495447       0.18242166       0.05189366
C        2.48624353       5.81292498       0.15172645      -0.78125111      -1.16148960      -0.08352248
C       -0.00504814       7.19179853      -0.15627915       0.26752792      -0.25573217       0.11436778
C       -2.48969881       5.71514313      -0.01734502      -0.57642899      -0.16634649       0.33307330
C       -1.20343334       5.02682939      -0.15598791      -0.50216021      -0.66395449      -1.09683447
Li      -0.08646355       4.35224406       1.82224158       0.00146274       0.23518538      -0.30521987
28
Lattice="7.4592010068868095 4.306571709265612 2.2773693193630385e-16 -7.459201006886811 4.306571709265612 2.281882096336145e-16 -3.833783670312445e-17 1.8967441614493776e-16 3.6162410038646398" Properties=species:S:1:pos:R:3:momenta:R:3 pbc="T T T"
C        0.02165040       1.47708766       0.11192210      -0.72254937       0.13498299       1.15788873
C        1.26937879       0.72577576       0.05319115       0.01425431      -0.29154195       0.35623848
C        2.46473276       1.41881656      -0.13576807      -0.32644112       0.29927536      -0.59231411
C       -0.04127593       2.91079566       0.03311737      -1.05590597       0.87247711       0.63052477
C       -2.47507528       1.39782332       0.04560748      -0.36303895      -0.69628538       0.25725591
C       -1.22590772       0.75969938       0.02584848      -0.89536551       0.49795937      -1.12256720
Li       0.01916832      -0.20668497       1.94741117      -0.31241879       0.34062448       0.74875013
C       -3.76896314       3.60811265      -0.08245786      -0.36189576      -0.41045446       1.07177247
C       -2.49401818       2.90174231      -0.01254552      -0.59279761       0.14073523       0.35256907
C       -1.28135614       3.63742029      -0.00965560       0.76535331       0.10633592      -0.65233576
C       -3.70466120       5.03761614      -0.03036079       0.95823426       0.20254445      -0.08832504
C       -6.21538758       3.61165697      -0.01945632      -0.05972173      -0.33989093       0.39748079
C       -4.94864697       2.87799147      -0.04269274       0.61027878       1.21258971       0.16575072
Li      -3.90187807       1.84531476       1.83966266       0.28688243      -0.71263162      -0.93872791
C        3.72260605       3.59205768      -0.04443991       0.41204122       0.30389863       0.26818297
C        4.95806399       2.89269026       0.08493752      -0.57049898      -0.42826007      -0.22332615
C        6.23130226       3.61642072       0.15651243      -0.88909750      -0.07361174       0.00032632
C        3.71617967       5.01808016      -0.08411586       0.77928268       0.58106305      -0.84729541
C        1.21867032       3.61727861      -0.05951158       0.73967982      -0.21373652       0.58058848
C        2.46572797       2.89961346      -0.24741725      -0.20040017      -1.18202898      -0.62294258
Li       3.70157590       2.17213081       1.76975877      -0.00569883       0.26535531       0.36757772
C        0.03192893       5.71383770       0.01093417       0.30300460      -0.20812916       0.02128902
C        1.23556026       5.01643134      -0.04874860       0.23943007      -0.81349829      -0.53860309
C        2.52142213       5.78833262      -0.13385953       0.53961080       0.55958213      -0.35693635
C        0.02716328       7.11006794       0.09399187      -0.35850831      -0.62657206      -0.01571043
C       -2.44094582       5.80159707       0.13013365       0.55379067       0.93694818      -0.44709384
C       -1.24037805       5.02241952       0.16265524       0.35208281      -0.21252831      -0.30384656
Li       0.09848115       4.24524920       1.74865744       0.16041685      -0.24520342       0.37382984
28
Lattice="7.4592010068868095 4.306571709265612 2.2773693193630385e-16 -7.459201006886811 4.306571709265612 2.281882096336145e-16 -3.833783670312445e-17 1.8967441614493776e-16 3.6162410038646398" Properties=species:S:1:pos:R:3:momenta:R:3 pbc="T T T"
C       -0.03616665       1.42235655       0.06564639       0.80131588       1.35403253       0.22895263
C        1.25584463       0.71534063       0.10427905      -0.06814229      -0.04138099      -1.46047992
C        2.49853649       1.48323197       0.01000377       0.47941184      -0.36118743      -1.08827273
C        0.00468633       2.82784500       0.03099357       0.01610227      -1.27037244      -0.07772636
C       -2.49539659       1.42609265      -0.05260407       0.63859017      -0.89671779       0.07971860
C       -1.27402372       0.70027707      -0.05218672       0.71547443      -0.25566267       0.26115389
Li       0.17310030      -0.14246121       1.82505229       0.03765628      -0.64789808      -0.07418078
C       -3.68649488       3.57780490      -0.03416309       0.11735830       0.19775370      -0.44179623
C       -2.46588703       2.86516095      -0.06357397      -0.37382558      -0.41755006      -0.43403247
C       -1.24462808       3.55406241      -0.11546337      -0.47113691       0.77014892       0.43826181
C       -3.72587876       4.99078429      -0.03061368      -0.54563979      -0.06883856       0.07184788
C       -6.23300458       3.55904478       0.02161779       0.06271731       0.24528371      -0.87931537
C       -4.94513518       2.83073311      -0.01358568      -0.84217236       0.14144346       0.22112919
Li      -3.79434753       2.43844841       1.85011204      -0.15279761      -1.02759451       0.51321619
C        3.73570696       3.61765420      -0.02159914      -0.17601210      -0.01548932       1.53101278
C        4.98450591       2.83875517      -0.00558834       0.98149952       0.79378637       0.39945777
C        6.18992057       3.58867796      -0.24545967      -0.48943230      -0.01388616       0.34918201
C        3.75850595       5.03788530       0.17649897      -0.05241438      -0.23500437       0.31454145
C        1.26188346       3.61228455       0.02693411      -0.72547249       0.74752374      -0.48135072
C        2.49121578       2.87334924       0.02871064       0.30423481       0.30679851      -0.09399214
Li       3.74851620       2.19997497       1.76305636      -0.30460256       0.27997579       0.32565037
C       -0.00954733       5.77545333       0.01188735       0.06960665      -0.91783685       0.19859021
C        1.20197021       5.03392570       0.12034941      -0.61728043       0.69667812       0.42698679
C        2.51373479       5.67298231       0.13655309       0.87427276      -0.01518527      -0.00083764
C       -0.01679916       7.22015854      -0.13348192       0.14095156       0.71291775      -0.28122716
C       -2.52681003       5.71905823       0.06708518      -0.05656092       0.23377828       0.59002670
C       -1.31036146       4.99816947      -0.02290827      -0.88556261      -0.07468368      -0.36558293
Li       0.00017909       4.44663795       1.77812356       0.52186655      -0.22083608      -0.27093285
28
Lattice="7.4592010068868095 4.306571709265612 2.2773693193630385e-16 -7.459201006886811 4.306571709265612 2.281882096336145e-16 -3.833783670312445e-17 1.8967441614493776e-16 3.6162410038646398" Properties=species:S:1:pos:R:3:momenta:R:3 pbc="T T T"
C       -0.02882322       1.39925497       0.14117161      -0.44242367      -0.76604883       0.36981889
C        1.19051761       0.68575992       0.08117616       0.45798776       0.00434844       0.27814023
C        2.46218801       1.45743279       0.00872228      -0.96201267      -0.22296725       0.61192129
C       -0.00546123       2.81727672       0.03285661       1.01392453      -0.03315676       1.27121126
C       -2.51487720       1.45627255       0.03203773       0.87876497       1.17220359      -1.27844049
C       -1.23852325       0.67046713       0.01215119      -1.08267045       0.21851754       0.52884522
Li      -0.00018454       0.09411357       1.81466366       0.14443746      -0.65692690       0.83165078
C       -3.73968760       3.60019277      -0.04603879       0.18095394       0.74724907       0.86742186
C       -2.47135215       2.88704079       0.01965778       0.37880991       0.18855515      -1.27310906
C       -1.18082153       3.59109192       0.00788720       0.32517215      -0.27486927      -0.27763986
C       -3.76418564       5.02188789       0.12884043       0.26253586       0.22133420       0.32366656
C       -6.21655674       3.59502365      -0.02519844      -0.24066581       0.11340107       0.87980493
C       -4.98555349       2.90150739      -0.05669962       0.17346544      -1.34731310       0.68072521
Li      -3.62639036       2.37830748       1.84100557      -0.20656578       1.20445742      -0.37968693
C        3.76332154       3.57398528       0.04175550      -0.12819689      -0.78400535      -0.77056477
C        4.95787262       2.85919747      -0.07468766      -0.85500404      -0.36725630      -0.17120367
C        6.20723978       3.58992064      -0.17799832       1.06924132      -0.22399103      -0.94528414
C        3.74188129       5.02116481      -0.01065666      -0.98486718       0.24034366      -0.24565519
C        1.25336588       3.54498775      -0.16013536       0.64076840      -0.11980460      -0.65677584
C        2.50147674       2.82076665      -0.12842870      -0.67903412       0.17751590       0.07507048
Li       3.76254320       2.00863994       1.89929201      -0.19982854      -0.12082026      -0.12482614
C        0.00220618       5.73879460      -0.02226755      -0.00382877       0.99771829       0.30963213
C        1.23994665       5.00767967      -0.01309776      -0.55013612      -1.16214223      -0.44148130
C        2.44607248       5.75166720      -0.01517576      -0.18323371       0.91490615       0.36982065
C       -0.01095115       7.18382378      -0.04160301      -0.27309024      -0.27438531      -0.43579958
C       -2.44508781       5.74888061       0.07633479      -0.11350416      -1.17515940      -0.65754968
C       -1.18693260       5.03354528       0.09824426       1.25607213       0.55617583       0.09986762
Li      -0.09659973       4.43291819       1.83528972       0.12293584       0.77211741       0.16041955
28
Lattice="7.4592010068868095 4.306571709265612 2.2773693193630385e-16 -7.459201006886811 4.306571709265612 2.281882096336145e-16 -3.833783670312445e-17 1.8967441614493776e-16 3.6162410038646398" Properties=species:S:1:pos:R:3:momenta:R:3 pbc="T T T"
C        0.05456738       1.46697789       0.09728563       0.36255940       0.64536702       0.34489892
C        1.25910054       0.72656189      -0.04158928      -0.17269290      -0.29264217      -0.27018422
C        2.52691657       1.39989695      -0.06040989       0.54538238       0.09202398      -0.36049685
C        0.00222351       2.95086309       0.01609029      -0.32212742       0.31882204       0.11034990
C       -2.46625761       1.41248172       0.06528958      -0.79620408       0.27752240       0.37982732
C       -1.20360105       0.73860469       0.13675940      -0.36448826      -0.58617794      -0.03177758
Li      -0.02719676       0.01075134       1.74293427       0.22490857      -0.02748542      -0.60718440
C       -3.76034896       3.60847695      -0.12731583      -0.30452267      -0.13476826      -0.78606744
C       -2.49090009       2.84051301      -0.11788862       0.21959842      -0.67710362      -0.26473112
C       -1.28882722       3.60622668       0.00781106       0.19884324      -0.02152932      -0.07206213
C       -3.73018164       5.04016919      -0.02975301      -0.59998883      -0.13591641       0.23754373
C       -6.22140179       3.61891016      -0.04859171       0.73324464       0.25024519      -1.72744061
C       -4.99552737       2.85971071      -0.03590641       0.19855683      -0.54510095       0.39293325
Li      -3.76169516       1.95700736       1.90136657       0.44155428       0.53959435       1.36400683
C        3.70073545       3.59602784       0.07287755       0.87683411       0.38398214       0.32237796
C        4.97231422       2.87922775      -0.01790249      -0.71141659       0.14282299      -0.03139029
C        6.27734700       3.61079456       0.04764375      -0.10901211       0.28998952       0.57837869
C        3.69288867       5.00082027       0.05201928       0.06130265      -0.45510579       0.52240758
C        1.20587017       3.61121539      -0.07692522      -0.64213054      -0.29882203      -0.26032425
C        2.45808717       2.92206592      -0.05997597       0.15117374       0.82562248      -0.59383098
Li       3.82440834       2.17265982       1.83656522       0.01411804      -0.45505422       0.02313361
C       -0.00099812       5.76084862       0.17432700      -0.10437232      -0.52402640      -0.53602801
C        1.27098472       5.03338235       0.00758302       0.09425264       0.20225092      -0.42473873
C        2.48173313       5.73216875      -0.07892257       0.43068745       0.08706596       0.16455714
C        0.02737714       7.12866613       0.01671295       0.07847558      -0.18966977       0.04472150
C       -2.49115639       5.78382400      -0.03950477      -0.03065206       0.31750819       0.63739254
C       -1.28644642       5.02204641       0.04554048      -0.39755857      -0.21137312       1.25789485
Li      -0.02594640       4.09363886       1.74253508      -0.07631915       0.18195540      -0.41416758
28
Lattice="7.4592010068868095 4.306571709265612 2.2773693193630385e-16 -7.459201006886811 4.306571709265612 2.281882096336145e-16 -3.833783670312445e-17 1.8967441614493776e-16 3.6162410038646398" Properties=species:S:1:pos:R:3:momenta:R:3 pbc="T T T"
C       -0.01837209       1.41111843      -0.03861970       0.00024515       0.46350015       0.64534420
C        1.23019899       0.71279798      -0.01892109      -1.43139045      -0.15216185       1.04605733
C        2.50686938       1.45370788       0.15551257       0.85530834       0.31567241       0.06878601
C        0.01955654       2.82126061      -0.00759896      -0.57808884      -0.81037406       0.16476909
C       -2.48842189       1.48576069      -0.09525578       0.11944576      -0.38946053      -0.45646542
C       -1.27127049       0.71528299      -0.12679542       1.22469330      -0.26483063       0.10499459
Li      -0.11653176       0.06917674       1.77004048      -0.03930930       0.08868251      -0.38289547
C       -3.67266257       3.59403150       0.26222346       0.83365752       0.37898365      -0.38976531
C       -2.50278108       2.87811481      -0.00488972      -0.31944365       0.07850168      -0.35899192
C       -1.24907680       3.54572920      -0.11819086      -0.29600726       0.51297025      -0.12777686
C       -3.70269446       5.00766702       0.10648425       0.48946201      -0.44089216       0.36188610
C       -6.20786549       3.57754723      -0.01812062      -0.25077938       0.22287448       0.84224566
C       -4.96325324       2.88832302       0.11415420      -0.50178018       1.00831179      -0.81783775
Li      -3.83056662       2.13383456       1.78338333       0.41118114      -0.65005737       0.05076561
C        3.72630053       3.60432019      -0.06648964      -1.13839052       0.39597360      -0.85393412
C        4.95839949       2.89243627      -0.16375246       0.44970967      -0.27107893      -0.59233693
C        6.17094223       3.59168575      -0.18052013       0.28760604       1.07741664      -0.33991779
C        3.75032798       5.04281089       0.05614191       0.76858046      -0.36362213       0.45865947
C        1.30192173       3.58775497      -0.01462261       0.14187258       0.04572004      -0.06572708
C        2.52961167       2.84307687       0.13352262      -0.25975997      -0.81276508       0.32422597
Li       3.68238325       2.27469454       1.91173104       0.39379198      -0.07144349      -0.22865457
C        0.01781379       5.72592689      -0.01709904       0.17935354      -0.04904331      -0.22072096
C        1.29339713       5.02842117      -0.11112746       0.29670176       0.67559130       0.28217901
C        2.47701234       5.77461285       0.13235198      -0.45195594      -0.56862214       0.46451361
C       -0.04858241       7.17586492      -0.05276714      -0.36755892       0.31650804      -0.20005565
C       -2.47595125       5.69385282      -0.00497161       0.50191866       0.15917876       0.63344233
C       -1.19435690       5.02155114       0.00576221      -1.21269951      -0.31098623      -0.03398468
Li      -0.05897473       4.23544649       1.89469958      -0.10635781      -0.58455028      -0.37880433
28
Lattice="7.4592010068868095 4.306571709265612 2.2773693193630385e-16 -7.459201006886811 4.306571709265612 2.281882096336145e-16 -3.833783670312445e-17 1.8967441614493776e-16 3.6162410038646398" Properties=species:S:1:pos:R:3:momenta:R:3 pbc="T T T"
C        0.01987132       1.44373541       0.12856204      -0.21679016      -0.84891688      -0.22105836
C        1.23760625       0.70930698      -0.13383658       0.34628144      -0.40160791       0.29808129
C        2.46346299       1.45299953      -0.21438805       0.11254741       1.09955106       0.19820053
C       -0.03148998       2.83504028       0.00362031      -0.28771703       1.09604567      -0.09591094
C       -2.47929406       1.40674571       0.04510581       0.16767638       0.18457196       0.65981569
C       -1.25442165       0.69829733       0.14689884      -0.75149927       0.36005932       0.04408374
Li       0.06463319       0.07982735       1.91266912      -0.07273640       0.51149454       0.13772569
C       -3.75034256       3.57446726      -0.11774649      -0.70991680      -0.01682163       0.01692575
C       -2.44513915       2.85424384      -0.08248822       0.04280111       0.30881124       0.21219450
C       -1.20593016       3.58334007       0.02404422       0.58342039      -0.89927031      -0.03318655
C       -3.75743234       5.04619305      -0.05494322      -0.21603872       0.34009472       0.43214907
C       -6.21202992       3.58783730      -0.04309318      -0.43278581       0.05448039       0.89891825
C       -4.97113117       2.84563433      -0.10115713       0.43456662       0.15875169      -0.27201256
Li      -3.81237486       2.34594600       1.75471394       0.07225311      -0.30854935      -1.08328522
C        3.76935989       3.57054100       0.05211998       0.83289084       0.24002485       0.09625451
C        5.03750743       2.85066396       0.02700233      -1.01554194      -1.10497084       0.19083226
C        6.23233494       3.56330007       0.26826828       0.65180965      -0.33156679      -1.03347362
C        3.77072420       5.01258543       0.00551261       0.03061276       0.23790360      -0.07114930
C        1.16598264       3.55125420       0.00163888       0.74066770       0.27031829      -0.29865694
C        2.48067693       2.87598237      -0.13055716      -0.16308815      -0.64825643      -1.80911460
Li       3.59862541       2.24593177       1.73235319      -0.15315130      -0.27619370       0.65629021
C       -0.01611863       5.75200727       0.03232885       0.36905313       1.33098698      -0.40239673
C        1.16913055       5.00761825      -0.02317938      -0.03859773      -0.66487009       0.73025697
C        2.50834733       5.69060951      -0.12587214      -0.16404266       0.52022619      -0.04294885
C        0.06266554       7.21589110       0.24450045      -0.63140795      -1.38394661      -0.94688926
C       -2.50573108       5.74734742       0.03033793      -0.05539741       0.55318867       0.75678267
C       -1.25714670       5.01884090       0.07340322       0.57195084       0.14713012       0.06292174
Li       0.09473168       4.35153599       1.73569806      -0.04781323      -0.52867302       0.91865086
28
Lattice="7.4592010068868095 4.306571709265612 2.2773693193630385e-16 -7.459201006886811 4.306571709265612 2.281882096336145e-16 -3.833783670312445e-17 1.8967441614493776e-16 3.6162410038646398" Properties=species:S:1:pos:R:3:momenta:R:3 pbc="T T T"
C       -0.00727954       1.40845844      -0.11894646       0.60738691       0.54980055       0.29786437
C        1.26802873       0.71967102      -0.02747738      -0.31307976      -0.29661719       0.29013614
C        2.45620649       1.38797337       0.04741948       0.65388998      -0.24380608      -0.53663766
C        0.01037341       2.87651835       0.07055856       0.10265764      -0.94585209      -0.50745019
C       -2.48463246       1.39900633      -0.04956258      -0.05852558      -0.02884713       1.03392839
C       -1.24803310       0.72449612      -0.11754020      -0.61949600       0.18672226      -0.72323460
Li       0.06356788      -0.09821359       1.77224944       0.15538599       0.44784207       0.23826804
C       -3.72323907       3.58322598       0.11304392      -0.20944711      -0.47632496      -1.35754967
C       -2.49678575       2.91760498      -0.03440107      -0.16937562       0.09583756      -0.33561763
C       -1.24018613       3.61606138      -0.05627732      -0.33742362       0.99119468      -0.15194591
C       -3.69246341       5.00029989       0.20006209      -0.72690632      -0.45610785      -0.33100474
C       -6.23979122       3.57629382       0.08945446       1.09072120       0.20400858      -0.44398680
C       -4.95693729       2.88543978       0.06038953       0.38119888      -0.83790957       0.20283599
Li      -3.62699714       2.13270819       1.85012416       0.29109422      -0.12236496       1.16395132
C        3.69097734       3.59900426       0.08751466      -0.21651458       0.16667489       0.28454041
C        4.94196835       2.85546572      -0.06654097      -0.04207344       0.04248350       0.78382082
C        6.17760033       3.59105950      -0.23940987      -0.25152607       0.18168563       0.20742097
C        3.67039968       5.03344265       0.01428029      -0.69291608      -0.61296670      -0.13385675
C        1.30451554       3.63416495       0.15953069      -0.89374075       0.35658187       0.03602160
C        2.49611533       2.87953064       0.12953611       0.42641961       0.33379420      -1.00175486
Li       3.63354991       2.21617663       1.84512771      -0.23111351       0.47283052       0.70636789
C       -0.00300626       5.74127339      -0.02922176      -0.40656595       0.00321813       0.31828693
C        1.24270606       5.03282570       0.11074344      -0.52751034       0.20094476       0.84932212
C        2.49554514       5.77114421       0.01534860       0.42713032      -0.14212493      -0.22130737
C       -0.04234846       7.14884988      -0.16167300       1.06265030       0.36589065      -0.39999695
C       -2.49384732       5.75574848      -0.02613323       0.27535649       0.23817048       0.29418191
C       -1.26149194       5.00468579      -0.17348127      -0.20427822      -0.34909587       0.06401282
Li       0.16464723       4.34376476       1.76981171       0.42660706      -0.32566576      -0.62661625
28
Lattice="7.4592010068868095 4.306571709265612 2.2773693193630385e-16 -7.459201006886811 4.306571709265612 2.281882096336145e-16 -3.833783670312445e-17 1.8967441614493776e-16 3.6162410038646398" Properties=species:S:1:pos:R:3:momenta:R:3 pbc="T T T"
C       -0.02499615       1.47152957       0.10553566      -0.56160962       0.90997340       0.24321678
C        1.24537374       0.72344729      -0.04140906      -0.56134359      -0.47953755       1.21027539
C        2.47083920       1.45150964      -0.11417548      -0.73970607      -0.17824511       0.95342378
C       -0.01963172       2.88888741       0.06930386       0.34101504      -1.05040291       0.23868592
C       -2.51561076       1.47281722       0.07541768       1.11134713       0.45720943      -1.12990250
C       -1.23274556       0.71257512       0.11425645       0.07058951      -0.36256177      -0.09262059
Li      -0.10687791      -0.14191000       1.93087074      -0.05652083      -0.29119497       0.04337687
C       -3.74093989       3.62721790       0.00964251       1.17489555       0.97882308       0.43804795
C       -2.51974898       2.85211088       0.03199313      -0.13151878      -0.51868284       0.33563529
C       -1.25056862       3.58417901      -0.08292615       0.35876785      -0.05557073      -0.48736420
C       -3.75656458       5.03117177      -0.03676947       0.49396237       0.02540165      -0.63653250
C       -6.23200779       3.55248530       0.06392852      -0.72067496       0.18401285       0.52195504
C       -5.00701232       2.89547793      -0.03351835      -1.26817936       0.24838368      -0.40651692
Li      -3.71200663       2.18464011       1.63907958       0.21039611      -0.44854976       0.25601593
C        3.73654930       3.58760228      -0.09768843       0.33337959       0.11084911      -1.19560605
C        4.94762747       2.89399001       0.12390523       0.42237321       0.87538390      -0.20492466
C        6.22064027       3.55005903       0.09788226       0.09684303       0.03844105      -0.36479142
C        3.76081090       5.05617074      -0.09236730      -0.18172787       0.28980650      -0.05773787
C        1.24736301       3.58635627      -0.02055381       0.24836397       0.32888123       0.08119785
C        2.46076687       2.85256274      -0.16055630      -0.33664077      -0.07654003       0.34149237
Li       3.84546807       2.01610371       1.75533384      -0.17825572       0.35678530      -0.34433670
C        0.04643258       5.71855490       0.04029127      -0.01226838      -0.27820482       0.21678332
C        1.28710808       5.03250129      -0.02939824       0.15063851      -0.48532274      -0.10111018
C        2.49790823       5.75842937      -0.15646914       0.21509614       0.53861073       0.91976995
C        0.02477765       7.16715953       0.12686223      -1.24291949       0.21809281      -0.63667560
C       -2.49711903       5.73303913       0.02381527      -0.42235999      -0.90217089       0.26652714
C       -1.21837583       5.04734174      -0.00948152       0.51599620      -0.19654343       0.53421278
Li       0.09313542       4.35399384       1.89419655       0.67006790      -0.23713151      -0.94249657
28
Lattice="7.4592010068868095 4.306571709265612 2.2773693193630385e-16 -7.459201006886811 4.306571709265612 2.281882096336145e-16 -3.833783670312445e-17 1.8967441614493776e-16 3.6162410038646398" Properties=species:S:1:pos:R:3:momenta:R:3 pbc="T T T"
C        0.02611745       1.41242050       0.00690889      -0.16067121      -0.04523778       0.01355386
C        1.23795739       0.73964969      -0.04251683       1.13370660       1.10375838      -0.60786193
C        2.50140701       1.43228783      -0.09945556      -0.10362531      -0.11975596       0.14658979
C        0.01168854       2.86509719      -0.00519978      -0.96333905       0.85416672      -0.84231622
C       -2.47095007       1.42763850       0.01638558       0.37458436       0.30216402       0.45157020
C       -1.20416909       0.70587789      -0.10019351      -0.47931774       0.16859883       0.37193746
Li       0.11495233       0.11627311       1.72381784      -0.21462663      -0.36166545      -0.10264313
C       -3.69545475       3.53547256       0.08909060      -0.53696923      -0.01966787      -0.53452912
C       -2.42323290       2.83470683       0.06393268      -0.20114850      -0.80001366       0.23323283
C       -1.23191770       3.58521266      -0.10370806      -0.41513737       0.02933038       0.31363817
C       -3.73874047       5.00696972       0.02628605       0.28117035       0.07649580       0.00407412
C       -6.18680749       3.63255377      -0.16454979       0.65672401      -0.18689839      -1.54014861
C       -4.95749873       2.80987367      -0.00775888       0.49934819      -0.16472254       0.33492434
Li      -3.62408385       2.23043576       1.93141259      -0.00752434      -0.10655341      -0.49985538
C        3.71428420       3.55807410       0.10096327      -0.13988439      -0.77103005       0.28612601
C        4.98674225       2.88278776       0.02486719      -1.01596231      -0.61682538       0.25237429
C        6.20616411       3.64513731       0.01402041       0.46766929       0.32408484       0.95692707
C        3.72914925       4.99374798       0.06226740       0.25329739      -0.60518019       0.15157073
C        1.17760464       3.55397688       0.20918858       0.08995808      -0.62203602      -0.51670905
C        2.47404980       2.89311261       0.16596221       0.22867614       0.09632344       0.13922042
Li       3.80738110       2.09346812       1.80168024       0.34980730      -0.29498832      -0.18755801
C       -0.05744692       5.76063993      -0.08907874      -0.00713588       0.50646599      -0.73513600
C        1.18741283       5.03629066       0.08057383      -1.01731338      -0.18320533       0.17342116
C        2.46004758       5.70020546       0.01043882       0.85331559       0.51055280       0.78496178
C       -0.00515836       7.21345388      -0.07894940       0.27066304      -1.00120385      -0.21296639
C       -2.45035717       5.74885198       0.00356467      -0.26212332       1.15341979       0.10124711
C       -1.25704375       5.00715789      -0.11908086      -0.09913534       0.46704620       0.56747085
Li      -0.35673127       4.43297118       1.66489442       0.16500074       0.30657368       0.49688471
28
Lattice="7.4592010068868095 4.306571709265612 2.2773693193630385e-16 -7.459201006886811 4.306571709265612 2.281882096336145e-16 -3.833783670312445e-17 1.8967441614493776e-16 3.6162410038646398" Properties=species:S:1:pos:R:3:momenta:R:3 pbc="T T T"
C       -0.01729184       1.39643114       0.12160190      -0.11215312      -0.05637409      -1.56767080
C        1.24692862       0.73964958      -0.03032325      -0.65591516      -0.24934576       0.70986153
C        2.46003078       1.44372419      -0.12111524       0.97845474      -0.63215417       0.65008737
C       -0.03908834       2.84710677       0.03616956      -0.55684451       0.57999866      -0.79510053
C       -2.50754999       1.43275418       0.18437207       0.18098002      -0.72485612       1.56422636
C       -1.25755280       0.77616318       0.04951113      -0.80345740      -1.93137977       0.26027913
Li       0.18097501      -0.02748721       1.76125666       0.19601862       0.62493507      -0.56834270
C       -3.70419658       3.61584042      -0.12303289      -0.04894768      -0.41550375      -0.32060985
C       -2.50128122       2.85939660       0.03556088      -0.40043851       0.63036362       0.15163674
C       -1.20972454       3.53875763      -0.07938526       0.29725919       0.44211081      -0.37085070
C       -3.70420988       5.02286586      -0.01586547      -0.22160132      -0.12142983       0.12914132
C       -6.22907917       3.57656976       0.05169407       0.25614409      -0.62225266       1.23488508
C       -4.95463992       2.85675463      -0.14343018       0.34321678      -0.11117413       0.45263073
Li      -3.60746055       2.51412639       1.85743096      -0.33130843       0.00472488      -0.06497789
C        3.73838469       3.57375530       0.06494825      -0.71645547      -0.34057539       0.24427191
C        4.93735375       2.80642519      -0.04712437      -0.92577745       1.17024242       0.78652026
C        6.20365355       3.63102629       0.01545710      -0.97555063      -0.31248110      -0.12494320
C        3.70697173       5.00090757      -0.02099373       1.20353424       1.84360567      -0.09494942
C        1.26133196       3.55524990      -0.15589633       0.49294837      -0.88712881      -0.25801897
C        2.44602879       2.87079908       0.01373027      -0.34906679      -0.45910442       0.29214698
Li       3.50096693       1.97806867       1.71277708      -0.64465829       0.44249263      -0.81629395
C       -0.02813966       5.78048919       0.01092924       1.22185967      -0.22728113      -0.53929605
C        1.27840620       4.99276419       0.04515400       1.12123618      -0.18638097      -0.55715841
C        2.51361962       5.75687553      -0.02243055       0.71818057       0.26063201       0.19632955
C        0.01528287       7.16899764      -0.12055533      -0.27328281      -0.05953905      -1.27354077
C       -2.48333072       5.70265899       0.13307899       0.34850314      -0.00669447       1.03832704
C       -1.18286089       5.06848693       0.13559241       0.42060679       0.93914008      -0.31810897
Li      -0.05558731       4.35096974       1.87047985      -0.76348656       0.40541795      -0.04048012
28
Lattice="7.4592010068868095 4.306571709265612 2.2773693193630385e-16 -7.459201006886811 4.306571709265612 2.281882096336145e-16 -3.833783670312445e-17 1.8967441614493776e-16 3.6162410038646398" Properties=species:S:1:pos:R:3:momenta:R:3 pbc="T T T"
C        0.00496435       1.44260741      -0.05460886       0.72092555      -0.35828602       0.28621546
C        1.24913654       0.65433695       0.16083887       0.37311657       0.85541674       0.26020939
C        2.47199729       1.48097860       0.17097421       0.07667348       0.96635482      -0.00797468
C        0.04420352       2.88023095      -0.11834036      -1.10209167      -1.31507600       0.48467848
C       -2.55506581       1.46967215       0.08976879      -1.09504828       0.09434908       0.26154052
C       -1.29885293       0.73733750      -0.02994504       1.07818791       1.29274524      -0.58598044
Li       0.07619539      -0.08634066       1.72556075       0.58003221       0.14303752      -0.35529213
C       -3.78633170       3.60719482      -0.06737187      -0.10984849      -0.61504466      -1.20345288
C       -2.55946437       2.86384867      -0.14287650      -0.19260563      -1.66641880       0.04827297
C       -1.30306355       3.58662328      -0.16255047       0.00465823      -1.41643735       0.13440809
C       -3.77764222       5.04350530       0.00510432       0.39428805       1.23570397      -0.92771860
C       -6.21442587       3.55907543       0.11025286      -0.63345649      -0.52585140       1.12199722
C       -5.00325388       2.81811945       0.20457655      -1.55570270      -0.16138054      -0.05168196
Li      -3.65434232       2.20718189       1.94354422       0.54972317       1.28579464       0.46350377
C        3.78368984       3.59047936      -0.01461215       0.98075098      -0.40819857      -1.10771913
C        5.05509045       2.91033276      -0.03161862       0.67228595      -0.80485024      -0.83310568
C        6.22011187       3.62652805      -0.22784437       0.68497438      -0.36481115       1.08150071
C        3.67937735       4.98343979       0.05808344      -0.03778632      -0.34240600      -0.72904033
C        1.27995762       3.62771723       0.14068981       0.91820545       0.69502198      -0.07400817
C        2.50029885       2.89946274      -0.02286667       0.25804971       0.35673531       0.49508902
Li       4.11125923       1.91332099       1.89413763      -0.76250110      -0.47307643      -0.04252309
C       -0.05808271       5.74944811      -0.04054980      -0.29154562       0.02205781       0.12774550
C        1.17332893       5.16446342       0.04491054      -0.29996138       1.03468951       0.51447054
C        2.45610688       5.72022956      -0.03949076      -0.94689464      -0.59974008      -0.71846429
C       -0.00632830       7.23721794      -0.13528364       0.09194787       0.90130192      -0.86038690
C       -2.48917049       5.78000648       0.06425357       0.25738158      -1.44415993      -0.24880815
C       -1.31739540       4.97005491      -0.08543081      -0.62708364       1.50324385       1.59495525
Li       0.24704295       4.10921856       1.88374288       0.01332403       0.10929082       0.87157120
28
Lattice="7.4592010068868095 4.306571709265612 2.2773693193630385e-16 -7.459201006886811 4.306571709265612 2.281882096336145e-16 -3.833783670312445e-17 1.8967441614493776e-16 3.6162410038646398" Properties=species:S:1:pos:R:3:momenta:R:3 pbc="T T T"
C       -0.05965491       1.41772779      -0.00832440      -0.34262388      -1.01740980      -0.52049176
C        1.15532394       0.70491082       0.01848317      -0.53531292      -0.00421444       0.20104091
C        2.44774085       1.36983241      -0.17526901      -1.01294097      -1.38362520       0.45959901
C       -0.00784967       2.87362374      -0.05985181       1.15270988       1.13508851      -3.11048213
C       -2.45445449       1.42571267       0.13368923       0.16941654       0.44929858      -1.20790055
C       -1.24304977       0.64782434       0.13059793      -0.46334118       0.73565323       0.82532189
Li      -0.08087973      -0.12674652       1.92367454       0.61992937      -0.10851917      -0.57195584
C       -3.67997564       3.59607858      -0.18009944      -0.80568974       0.11837437       0.03912895
C       -2.42896850       2.90351515      -0.04006421       0.46596695       1.81300043       0.17004709
C       -1.18621604       3.61488864       0.04411386       0.26048173       0.17350444       1.68383870
C       -3.71678714       5.02024939      -0.22234132      -0.95949677       1.00519689      -0.05771544
C       -6.19682722       3.57354307       0.03830588       0.25657210      -0.37146798      -0.72363900
C       -4.90093809       2.96893387      -0.09461334       2.17372141       0.34572620       0.46463470
Li      -3.80419093       1.99774243       1.73009160      -0.16973369       1.13158892       1.94243726
C        3.66137151       3.63055088      -0.14146525      -0.80190245      -0.74272310       0.33815319
C        4.91986830       2.90050503       0.01458424      -0.16680269       0.52181833      -0.43175053
C        6.20690166       3.58525045       0.02398160       1.08554135       0.47151259      -0.64274621
C        3.74920710       5.05096721      -0.07760720       0.41662452      -0.64500896      -0.50771492
C        1.21199304       3.58419394       0.07271910       0.05696512      -1.63618813       0.31818404
C        2.46970690       2.82385360      -0.07606501      -1.27637505       0.46775848      -0.38657829
Li       3.80652904       2.21064563       1.75404610       0.46319736      -0.74681707       1.61773167
C        0.02890485       5.70713467       0.16455179      -0.22940453      -0.36116506      -0.82346221
C        1.23876253       4.99966742       0.05074824      -1.22213812       0.61233796      -0.49988245
C        2.50463136       5.82025308       0.01174696       0.35729512       0.09739355       0.87535527
C       -0.00153331       7.17416538       0.00367197      -0.59810949       0.27929186       1.22519993
C       -2.48957253       5.75665244       0.08455767       0.86430155       0.62210528       0.57344168
C       -1.18107712       5.09986464       0.25245681      -0.11722793      -1.81905539      -1.04660279
Li      -0.00374426       4.32656659       1.87918242       0.35837588      -1.14344538      -0.20319117
28
Lattice="7.4592010068868095 4.306571709265612 2.2773693193630385e-16 -7.459201006886811 4.306571709265612 2.281882096336145e-16 -3.833783670312445e-17 1.8967441614493776e-16 3.6162410038646398" Properties=species:S:1:pos:R:3:momenta:R:3 pbc="T T T"
C        0.10648483       1.44444893      -0.07050575       0.11245518       0.06652120       0.41823561
C        1.34479773       0.83348632       0.02210663       0.02850682       0.08586810      -0.72873657
C        2.54367536       1.48388660       0.13585501       0.49038977      -0.82129397       0.19923524
C       -0.03957936       2.88069596      -0.13432218      -0.62816582       0.95221298       1.48777443
C       -2.39022837       1.43257440       0.20066115       0.06510061      -0.95170655       0.21783889
C       -1.17467767       0.80301205       0.02915999      -0.80245108       0.06792579      -0.28766082
Li      -0.27279467      -0.03863804       1.81291038      -0.31580209      -0.59021818       0.18155003
C       -3.75530395       3.55836586      -0.08388351       0.70590656       0.99931409      -0.69336121
C       -2.47763494       2.83931080       0.04411605      -0.14151086      -0.55978825       0.00331465
C       -1.29042056       3.55103540      -0.13648348       0.53892955      -0.48083332       0.15191015
C       -3.67939468       4.96674416       0.00035224       0.13540846      -0.50356773      -0.19255015
C       -6.23696933       3.68889402       0.10252458      -0.10789915      -0.76719664      -0.43859463
C       -5.07239711       2.82562177       0.01423050       0.18641627       1.17110395      -0.82057697
Li      -3.78753400       1.83541563       1.71938968      -0.15312375       0.69990120       0.09814713
C        3.78352284       3.57267851       0.19256562       1.24253555       0.27060146      -0.30366205
C        4.98025637       2.81623980      -0.09916262      -0.38055467       0.32640101       0.15307321
C        6.23138600       3.58019111      -0.05734969      -0.78576218      -0.91343796       1.72811411
C        3.75908494       5.00638468       0.17755651       0.10179958       0.72427986      -0.73334585
C        1.28342807       3.55369429      -0.08786670       0.95073744       1.27622812       0.09978016
C        2.50758179       2.88037475       0.32925581      -0.44786983       0.52943246       0.06389277
Li       3.56377420       2.28122699       1.83401410       0.05859189      -0.72952690       0.01411791
C        0.03476440       5.75515556      -0.23046133      -0.00546342      -1.29250144       0.81996010
C        1.26140677       4.96184099       0.02043749       1.58317329      -1.14622122      -0.02323617
C        2.44348160       5.73643269       0.13225295      -0.97891508      -0.03055315       0.40488981
C        0.03056773       7.21212357      -0.24975801       0.15125109       1.60743491      -0.36518492
C       -2.53218468       5.70640747       0.01667182      -0.87713233      -0.64461317      -1.19333222
C       -1.29071747       5.00288282      -0.09123684      -0.37522526       0.62154758      -0.26390448
Li      -0.14547699       4.60265662       1.56033636      -0.35132596       0.03269655       0.00231242
28
Lattice="7.4592010068868095 4.306571709265612 2.2773693193630385e-16 -7.459201006886811 4.306571709265612 2.281882096336145e-16 -3.833783670312445e-17 1.8967441614493776e-16 3.6162410038646398" Properties=species:S:1:pos:R:3:momenta:R:3 pbc="T T T"
C       -0.05092953       1.41911630      -0.06699033      -0.83308467      -0.82363604       0.17574067
C        1.21666379       0.65834495       0.08813193       0.07215799       1.15644500      -0.32025543
C        2.52369276       1.42766790       0.01970858       0.83656847       0.82697714       0.78690674
C       -0.00444460       2.83294176       0.00102901      -0.60671053      -0.73271014       0.30482981
C       -2.54189648       1.47365440      -0.06224570       1.02422593      -0.05280557      -0.13744781
C       -1.33193992       0.71816977       0.04412884       1.16131493       1.18572177      -1.07998136
Li       0.06675224       0.10322526       1.86505975      -0.72976747      -0.30146711      -0.29730738
C       -3.73252687       3.57890407      -0.22354181      -0.16187671      -1.03107324       1.40623506
C       -2.49099667       2.88397548      -0.09999642       0.22576276      -0.24745847       0.04753615
C       -1.25046788       3.62843468       0.23485684      -1.17937578       0.40968518      -0.36732925
C       -3.73391446       5.03692869      -0.22782614       0.53538322      -0.29701267       0.11334899
C       -6.17085642       3.52563635       0.00151371      -0.04786105      -0.38145526      -0.47521635
C       -4.89219843       2.87821872       0.03728597      -2.27755025      -1.17265079      -0.22714914
Li      -3.71886600       1.87830089       1.65299457      -0.20400596      -0.31548995      -1.02738157
C        3.64347850       3.59716353      -0.24963146      -0.42034881       1.06003852       0.67344233
C        4.93507574       2.91086668      -0.02299351       0.60197610       0.28307457       0.05390169
C        6.20254063       3.52585238      -0.04668325       0.54646401      -0.31058335       1.11859271
C        3.76587247       5.03724918      -0.10658751      -0.32564672      -0.65166958       0.95673065
C        1.18875333       3.59022611       0.07659424      -0.96245315      -0.64566728      -0.48919777
C        2.47627664       2.85439451      -0.17770649       0.63452059      -0.31858096       0.63038525
Li       3.74125227       2.33042829       1.63089813       0.43684354      -0.50776161      -1.08478243
C        0.00819364       5.77873436       0.33107543       0.45913905      -0.88486761       0.28563453
C        1.24646735       5.05564125       0.04710229      -0.67000343       1.51403277       0.03848724
C        2.54831371       5.72392591      -0.04188195       0.68250336      -0.35911150       0.49345112
C        0.00219087       7.22705292       0.28836246       0.29493734       0.76772569      -0.62241920
C       -2.44487360       5.77790615       0.05724063       0.97311942       0.21066526      -0.07196453
C       -1.22757892       5.00761705       0.28447094       0.58903252       0.85789790      -1.62014712
Li       0.11000795       4.27156188       1.76264201      -0.65526269       0.76175034       0.73535711
28
Lattice="7.4592010068868095 4.306571709265612 2.2773693193630385e-16 -7.459201006886811 4.306571709265612 2.281882096336145e-16 -3.833783670312445e-17 1.8967441614493776e-16 3.6162410038646398" Properties=species:S:1:pos:R:3:momenta:R:3 pbc="T T T"
C        0.00657776       1.44502676      -0.07773771       0.99346062      -1.48219673       0.33733505
C        1.19404334       0.70577155       0.02440708      -0.19452042      -0.68577315      -0.43824587
C        2.39891673       1.42437702       0.15705753      -1.46323203      -0.43045804      -0.60294150
C        0.01872278       2.88953801      -0.10647041       1.65222292       1.93592477      -1.18312651
C       -2.49803638       1.39218282       0.20612002       0.34546841      -0.13145556      -1.33064316
C       -1.21578726       0.68768358      -0.06043942      -1.01983390      -0.67948969       1.07099144
Li       0.07799847       0.05916739       1.75109592      -0.19310827       0.10301514       0.77633305
C       -3.70603554       3.58467224       0.03631925       0.63343174       0.61446515       1.22839712
C       -2.46661394       2.86952371       0.10121696       0.29585629       1.17366701      -0.46864113
C       -1.22294753       3.54158500      -0.09941557       1.22312236      -0.25255362       1.47109063
C       -3.77663567       5.05737456       0.13449118      -0.32925686       0.96434276       0.16482115
C       -6.24654205       3.55192044      -0.09762938      -0.22145503       1.00406579      -0.89477307
C       -5.01026815       2.88171091      -0.03200253       0.10113616       0.96569133      -0.58195527
Li      -3.67606183       2.23411022       1.87059882       0.07004517      -1.17818756      -0.25825651
C        3.85514173       3.57579098       0.15916244       0.14490699      -0.44870886       1.50191395
C        5.04322464       2.86559934       0.04283614      -1.02350629      -0.54516696       0.63965864
C        6.21003372       3.66801624      -0.06600995      -1.23194143      -0.59604462      -0.85160198
C        3.70686200       5.02955797       0.26708726       0.27042604       0.33215063      -0.02954805
C        1.29602248       3.67160167      -0.18080922      -1.16129181      -0.31338711       0.84543230
C        2.46589496       2.86305975       0.09700506      -0.11885415       0.10241695      -1.53485396
Li       3.68086313       2.36271285       2.10586442       0.44323451       0.35552360       0.15359293
C       -0.02535707       5.76520673      -0.21393708       0.03181751       0.15552751       1.17887013
C        1.22739663       5.00391878      -0.16156719      -0.51585448      -0.34080284       0.23431698
C        2.43465009       5.74758894       0.08563221       1.02689214       0.10212877      -0.01143528
C       -0.02063083       7.14096732      -0.22120757       0.32507097      -0.19106548       1.78087355
C       -2.51644259       5.67617071      -0.11591542      -0.57887363       0.36674575      -1.10815389
C       -1.23684708       4.99071000      -0.02222907       0.62097532       0.07493028      -0.51817095
Li       0.06365633       4.13361862       1.75421556      -0.12633656      -0.97528863      -1.57127906
28
Lattice="7.4592010068868095 4.306571709265612 2.2773693193630385e-16 -7.459201006886811 4.306571709265612 2.281882096336145e-16 -3.833783670312445e-17 1.8967441614493776e-16 3.6162410038646398" Properties=species:S:1:pos:R:3:momenta:R:3 pbc="T T T"
C       -0.03769435       1.45802366       0.19753908      -0.23325969       0.10388834       1.51807730
C        1.30167261       0.73304110       0.24496927       0.31828411      -0.24332803       0.34391338
C        2.53414821       1.42006227      -0.00922371       0.65685167      -0.03536278      -0.14255538
C       -0.03104502       2.83528092       0.17362155      -1.51585837       0.31982945       1.26134184
C       -2.46259104       1.41997810      -0.25441130      -0.00987426       0.05496783       0.26205851
C       -1.21585665       0.73902053       0.00041067      -0.22399024       0.39188984      -1.35622632
Li       0.11191777      -0.07555124       1.83962070      -0.18495999       0.02318068       0.17756760
C       -3.73129169       3.60423910      -0.07639722       0.29271107       0.24875656       1.01155712
C       -2.52674809       2.84635448      -0.00074423      -1.82287149      -0.63694535       1.62143249
C       -1.29015489       3.58982117       0.12687435      -0.21559887      -0.71990865      -0.95199438
C       -3.66455203       5.04784870      -0.06530471      -0.19608209      -0.61444055      -0.03011871
C       -6.21551692       3.62509376       0.13822913       1.28819152      -1.03101785      -0.08534023
C       -4.97132473       2.84825467      -0.10351960       0.51393153       0.05160387      -1.13866107
Li      -3.69737847       2.34920767       1.71546201       0.14188966       0.14088393      -0.72076175
C        3.67472280       3.53778352      -0.08739914       0.03812709      -0.88768783       0.40196633
C        4.97383334       2.85218755      -0.22041913       1.76475014       1.47137438      -0.51905710
C        6.26962518       3.57518698      -0.00568855       0.03868656       0.89544950       0.15327617
C        3.71254943       5.00440479      -0.19485847      -1.02877742       0.17275539       0.07281373
C        1.21104922       3.47359805      -0.18495080       1.01441161       0.52627329      -1.06300876
C        2.44867165       2.84555402      -0.05778633       1.52276108       0.69928512       0.96414171
Li       3.67001004       2.08097191       1.74724933      -0.36720304       1.17523292       0.02458147
C       -0.01635628       5.76391587       0.16732320      -1.04578056      -0.85941176       0.92815666
C        1.22435317       5.00472231       0.15484995       1.19860734       0.08217322      -0.03514437
C        2.46567196       5.71889479      -0.11590747      -0.90787596      -0.76682803      -0.47329182
C        0.04878229       7.12291466       0.10418908      -0.06023039       0.68104075      -1.20378456
C       -2.49004456       5.79430520      -0.07406876      -0.25605707      -1.37464972      -1.07978708
C       -1.30634385       5.06079269       0.07867100      -0.78721976       0.64920719      -0.18075618
Li       0.07884176       4.62239419       2.04093132       0.06643778      -0.51819908       0.23960442
28
Lattice="7.4592010068868095 4.306571709265612 2.2773693193630385e-16 -7.459201006886811 4.306571709265612 2.281882096336145e-16 -3.833783670312445e-17 1.8967441614493776e-16 3.6162410038646398" Properties=species:S:1:pos:R:3:momenta:R:3 pbc="T T T"
C       -0.01175460       1.49106095      -0.07050176      -0.35527256      -0.08554474      -0.75813179
C        1.24039809       0.65631362      -0.07398277      -0.89180670       0.55816064       0.64975842
C        2.48380439       1.47423078      -0.09587018       0.10052373      -1.08926177       0.04473031
C       -0.01755025       2.86365916      -0.21566991       0.70579254      -0.60694461      -0.84575390
C       -2.53036619       1.50113936       0.01538038      -0.32834093       0.98308638       0.21361329
C       -1.33527747       0.64815342      -0.08456498      -0.14103171       0.22330133      -0.22415231
Li       0.12127992       0.01830119       1.70298053      -0.19079697      -0.02960958      -0.88112135
C       -3.75479316       3.51832254       0.14644853       0.90364056      -1.35673633       1.24473199
C       -2.46573845       2.85454416       0.09452577       1.29898827      -1.30436228       0.86103991
C       -1.22996737       3.58545034      -0.04577230      -0.21806960      -0.22703475      -0.61303514
C       -3.81933452       4.98278883       0.01128435       0.35146524       1.68496206       0.00910111
C       -6.23844549       3.60128804      -0.22189370       0.01233716       0.06402431      -0.45683985
C       -4.99688845       2.86772974       0.10943501      -1.00692140       0.18651570       0.27119998
Li      -3.69288127       2.26982937       1.97800418      -0.04764483       0.23983657      -0.22686447
C        3.70141468       3.63054148       0.32348867      -0.24786585       0.22013059       0.41634811
C        4.88179878       2.85125436       0.27374726      -0.44518563       0.68652298      -0.19067633
C        6.06352635       3.55394255      -0.12153661      -0.09578275      -1.65357958      -0.44164493
C        3.73868022       5.10954447       0.24653632       1.11419232       0.77016606       0.65793370
C        1.29804963       3.63895883      -0.09068766      -0.65486108      -1.00284687      -0.74973924
C        2.54515976       2.94375684      -0.15739949      -1.25107973      -0.24632448      -0.32940694
Li       3.93836935       1.85297312       1.77976888      -0.20274511      -0.49836450      -0.65990181
C        0.04752194       5.70182720       0.01219170       1.42772378       0.50455650       0.88940226
C        1.35528705       5.06720692      -0.03695241      -0.12975639       1.23313492      -0.67141726
C        2.55529054       5.76122119       0.14601263       0.44426364       0.50595404      -0.97204637
C       -0.09201526       7.19335536      -0.04226584      -0.25015141      -0.10526237       1.36261578
C       -2.48782804       5.70634372       0.02537635       0.20920215       0.50560969       1.28189783
C       -1.20880946       5.01663163      -0.01384515      -0.72351996      -0.76908079      -0.64697948
Li       0.11402780       4.32021896       1.54072333       0.61270354       0.60900966       0.76533996
28
Lattice="7.4592010068868095 4.306571709265612 2.2773693193630385e-16 -7.459201006886811 4.306571709265612 2.281882096336145e-16 -3.833783670312445e-17 1.8967441614493776e-16 3.6162410038646398" Properties=species:S:1:pos:R:3:momenta:R:3 pbc="T T T"
C       -0.05209880       1.41839921       0.40134173       1.41294522      -0.40465978      -0.14054630
C        1.21944541       0.75540919       0.24832856      -0.25258358       0.53074563      -0.53184107
C        2.46485384       1.44972619       0.00334123      -0.48240855       0.08941918       0.03893344
C       -0.06020525       2.81159457       0.33084839      -1.05113643       0.37199443      -0.47643846
C       -2.45365181       1.37589242      -0.17396776       0.39029116      -0.30420110       0.55084158
C       -1.15945112       0.76068374      -0.14176926       0.78437695      -0.43866381       0.34526095
Li       0.04932962      -0.25413082       1.82682664       0.56370724       0.17364338       0.12222961
C       -3.74434600       3.63886221      -0.06166802      -1.50624169      -0.97546448      -2.19113324
C       -2.50140895       2.91060049      -0.06774956       0.28628593       1.64429134       0.19613136
C       -1.28846648       3.58061321       0.00483605       0.06709694       1.58548859       1.10423451
C       -3.69040289       5.08739985      -0.03423740      -1.09005331       0.47752622       0.58925818
C       -6.19617729       3.60050484       0.14458886      -0.70525463       0.21620543       0.24877058
C       -4.99188290       2.87575726      -0.11970834       0.42220530       0.39063338      -0.30431157
Li      -3.59998839       2.09790259       1.75996423      -0.01082830       0.34192605       0.35660504
C        3.75852615       3.54796816      -0.04033416       0.72914035      -1.59964441       0.46567661
C        5.03764937       2.90947635      -0.06125697      -1.31148734      -0.99432787      -0.12047763
C        6.34498671       3.68528802      -0.06437358       0.26641131       0.88484357      -0.78823602
C        3.73719579       4.98273806      -0.07708869       0.34162439       0.69551048      -0.38692696
C        1.15332906       3.53741464       0.02076564       0.62797490      -0.59263675       0.50987071
C        2.42778457       2.86529739      -0.03836891      -0.60168805       0.84672069       0.30578991
Li       3.84791992       2.44263555       1.80158191       0.79648243      -0.77203082       0.11513023
C       -0.03976169       5.79914118       0.00839270      -1.46877461       0.09850539      -0.04396942
C        1.11656167       4.94415631       0.01193719      -0.11726421      -1.04485476      -0.51066313
C        2.43303687       5.75457212      -0.11002512       0.05234553       0.44431562      -0.70253678
C        0.06399578       7.21711230      -0.05569770      -0.34400809      -0.72111990       1.49829271
C       -2.48308652       5.73653634      -0.16505074       1.08867949      -1.19516174      -1.46398681
C       -1.25097776       5.04768053       0.05804912       0.39237382       0.44485515       1.13536481
Li      -0.02983355       4.04763369       1.80755100       0.71978925      -0.19384170       0.07867871
28
Lattice="7.4592010068868095 4.306571709265612 2.2773693193630385e-16 -7.459201006886811 4.306571709265612 2.281882096336145e-16 -3.833783670312445e-17 1.8967441614493776e-16 3.6162410038646398" Properties=species:S:1:pos:R:3:momenta:R:3 pbc="T T T"
C        0.00314337       1.45261424      -0.11497838      -1.27042424       1.24503035      -0.79905255
C        1.28900479       0.68503150      -0.08722960       0.65292428      -0.77058320       0.24340188
C        2.49264461       1.41228360      -0.07176093       2.56536102       0.30064438       0.55802606
C        0.09349582       2.87700849      -0.05542198       0.07150608      -1.11969079      -0.12728002
C       -2.44753741       1.45522901      -0.11848185      -1.66544031      -0.09725453       0.47186172
C       -1.26823731       0.75402492      -0.08346584      -1.71225915       0.09484447       0.08014243
Li      -0.07849164       0.02984791       1.75412347       0.15056406      -0.99153335      -1.25909724
C       -3.71067829       3.64117180       0.04398522       0.64177097      -0.01046234      -0.87164805
C       -2.40944569       2.85135249      -0.07716913      -1.09246651      -0.40340791       1.14421932
C       -1.21032317       3.56746212       0.02279678      -1.32844900      -1.43680488      -0.10760889
C       -3.74580514       5.02909719      -0.00692426       1.18145944       0.31805055       0.14739933
C       -6.18627838       3.56638882      -0.05566518       0.86763384      -0.31653438       1.62595588
C       -4.95022096       2.88180109       0.16497714       0.69218323      -1.15262295       0.68935398
Li      -3.83938354       2.03847679       1.95332615       0.60873191      -0.21783719       0.24416828
C        3.74373567       3.58162466       0.14874528       0.04473917      -0.37225181      -0.63363635
C        4.97518135       2.83168465       0.06640760      -0.38174284       0.37181187      -1.36652072
C        6.20652390       3.50133830      -0.08871698       0.50380586      -0.79718069       0.51804471
C        3.71829672       5.04111816       0.21845966      -1.28663191       1.37234489       0.38324551
C        1.30347863       3.65310942      -0.21023786       0.79728273       1.46249007      -1.18339770
C        2.51105742       2.82685764      -0.07645253      -0.23060979       0.93827482       1.26884650
Li       3.50141723       2.33700758       1.75983096       0.06529175       0.58242470       0.64217401
C        0.00171305       5.70508770       0.03476536       1.11840911      -0.17191757      -0.08841656
C        1.27077570       5.06357234       0.01685129       0.13067135       0.89674132      -0.76252523
C        2.49417425       5.79198529       0.18128127      -0.61285232      -1.59330649      -0.24883353
C       -0.01439675       7.12509219      -0.00103908       0.27921217       1.06388266      -1.15526010
C       -2.49204280       5.78025056       0.25220302      -0.41943660       0.74756540       0.27454013
C       -1.30884400       4.96974525      -0.06062338      -0.89086250       0.40462327       1.33038490
Li      -0.20563126       4.35776355       1.69200277       0.51962951      -0.34731975      -1.01848617
