65
Lattice="9.859190093031751 1.2243099745877253e-17 -5.4657231986688855e-18 -4.9295950465158755 8.538309081305215 4.233250727167818e-14 -3.9313443161442645e-16 2.4342209429117815e-14 6.836130583950681" Properties=species:S:1:pos:R:3:momenta:R:3:forces:R:3 stress="0.007552682209242798 0.0031193094110025027 -0.0010286670687867365 0.0031193094110025027 0.010138150907157516 -0.0010199131730281295 -0.0010286670687867365 -0.0010199131730281295 -0.001803729918930453" energy=-596.6494786140223 pbc="T T T"
C        0.73864977      -0.19390896       1.68033169      -0.03336221       0.49322301       0.26840558      -4.00961950      -0.72752551       0.06241874
C        0.60527895       1.26990974       1.56372096      -0.08724177       0.27992101      -0.67158589       3.66169295      -2.75856837       1.05638158
C       -0.58844443       0.63091157       5.04628583       0.84900327      -0.67510632       0.71019469      -1.02216566      -2.80687293      -0.52226995
C        0.64134082       1.27533434       4.98734648       0.12960961       0.45969873       1.47451087       1.79431787      -1.88269680      -0.04788339
C       -0.57020133       1.90321233       1.86402133      -0.53287286       0.53076930       0.05811867      -0.44704704       2.32136332      -1.35215243
C       -0.60284273       3.38259193       1.68171711      -0.52226311       0.47953211       0.66157431       0.66333989      -2.02501753       1.21349020
C       -1.85730868       2.73357782       5.11729601      -0.13524919      -0.40148251      -0.25668266       0.36733508      -1.24297149       0.02807580
C       -0.57474630       3.36821110       5.12723041      -0.99695096       0.21096973      -1.29813921      -2.03801047       1.30879177       0.16250326
C       -1.79447564       4.07897448       1.80195378       0.57562926       1.24089323       0.42014864      -1.74648897      -0.75530934      -1.60940304
C       -1.85650023       5.47617073       1.47206814       0.12998687       2.36097124      -0.73801360       1.77351710      -0.65447143       1.97478351
C       -3.11016690       4.90977713       5.31204632       1.21987801      -0.99211985       1.53882267       0.49357004      -3.06888611      -0.21726708
C       -1.83027973       5.50890237       5.39568836       1.02851795       0.01802713       1.60364887      -0.57545079       1.26959431      -1.34545736
C       -3.06257748       6.13934944       1.63558384      -0.51472774      -0.48643604       1.18383407      -1.01300748       0.06549741      -0.82702202
C       -3.04550215       7.54140442       1.57764109      -0.47488123       0.87650380      -0.97330256       0.52542927       2.38857883       0.25812345
C       -4.33661525       6.96081208       5.24550187      -0.06129042       0.20710324      -0.11814359      -0.80653412       3.56876927      -1.39113809
C       -3.08333484       7.67805188       5.09311305       0.81711764       0.30831701      -0.78574916       1.60457316      -0.56062815       0.28274692
C        3.10947620      -0.23927001       1.58748314       0.81444968      -0.61416399      -0.21374768       0.42453509       0.28265042      -0.07569613
C        3.13825091       1.21334476       1.58343142      -0.53341810       0.07832645      -0.67585252       0.21586190      -0.78848001       0.35217852
C        1.93970162       0.55834516       4.98543258       0.48390333      -0.40799539       0.63796429      -2.83773967      -0.68253720       0.50848235
C        3.15274577       1.27357038       5.09828774       0.59763515       0.32305705       0.58540304      -2.47752620       0.57291462      -0.84249608
C        1.93609730       1.88742373       1.62352882       0.14154736       1.55459646       0.02028849      -2.68985503       2.99505818      -0.49908767
C        1.84548326       3.37866341       1.65317857      -0.40422225       0.67631179       0.57524736       1.43057733      -2.00078677       0.74222209
C        0.60293881       2.62719195       4.97803053       0.44802031      -0.10768527      -0.54493503       2.19779009       3.06654886       0.08074468
C        1.87912345       3.34029724       4.92486119      -0.54449721      -1.57463355       0.22115160      -1.06766414       2.19957851      -0.41619748
C        0.61884513       4.05728812       1.72392645       0.25734816      -0.17346386       0.31955414       1.18907638       1.87666632      -0.75665272
C        0.69258179       5.52911445       1.66351554      -0.48745520      -0.66148278       0.58434417      -2.00411622      -0.89290395       0.36816104
C       -0.62135312       4.79772049       5.26413414      -0.21229690      -1.08727910       0.10425320       2.74590033      -0.38478465      -0.59294593
C        0.68308742       5.49138027       5.07834081       0.05119894      -0.25231661      -0.00162523      -2.66178996       1.06402926       0.10538060
C       -0.60295846       6.18829768       1.64571507       0.48563972       0.01429213      -1.18537495       1.07846252       0.01557167      -0.55985697
C       -0.60322966       7.61052685       1.69974953      -0.19339107      -0.50094015       0.47148644       0.33266321       0.05520355       0.19246611
C       -1.79756609       6.92780027       5.11874237      -0.10835179      -0.20435161      -0.82815950      -2.96463683       0.21673757       0.89801646
C       -0.61993431       7.64367597       5.12182473       0.60185609       2.20037254      -1.30123129       0.16904090       1.18757975       0.19999277
C        5.56371799      -0.18761265       1.90039714       0.44932193       0.63985226       0.72092536      -1.47335878      -0.48991535      -0.58006090
C        5.56793767       1.20939249       1.71204694       1.76126627       0.82869039      -0.46990755       0.82355594       0.13489102       0.48941388
C        4.29061293       0.56428435       5.19097442      -1.12871264      -0.79089358       1.27836634       3.93376796      -0.93637331      -0.01069854
C        5.56427048       1.28314748       5.22494109      -0.15749340      -0.83991809       0.84762760      -0.67497644       0.10981968      -0.60794589
C        4.38551779       1.94994594       1.68178491      -1.34116600      -1.62635574       0.97789549      -2.05044612      -0.34059825      -0.34411430
C        4.30400356       3.37391948       1.72429139      -0.19576991       0.95102352      -1.90504662       0.92803269      -0.99015041       0.56819429
C        3.09617845       2.70050014       4.91116446      -0.61926119       0.45981131      -0.42799314      -0.23173535      -0.67964799       0.73225431
C        4.26877253       3.45018547       5.05368565      -0.15459673      -0.66402205       0.05814363       1.88968773      -0.92652671       0.50866465
C        3.07087149       4.07113239       1.86483620       0.43575986       0.86412138       0.11580120      -0.02158046      -0.19341946      -1.08343809
C        3.11507513       5.49198189       1.87150888      -0.61597968       0.36810920      -0.47825172      -0.30498391      -0.04139334       0.41460408
C        1.90785094       4.82796720       4.85107368      -0.09290795       1.78657783      -0.72040990      -1.99329398      -1.65719835       1.08237371
C        3.07468049       5.58912245       4.99825795       1.37328625      -0.34382162      -0.19935755       0.55624272      -1.90025098      -0.37054716
C        1.92425552       6.26067316       1.76823523      -1.44409100      -0.93274330       0.98084032      -1.95572403      -0.95634315       0.76599779
C        1.82606562       7.66681372       2.04315471       1.58457740      -0.61456868      -0.90474139       2.28829704      -0.79726496      -0.60167143
C        0.59169180       6.95973731       5.11013241      -0.08940699      -0.24535839      -0.98654481       0.66956839      -2.13870175      -0.12602516
C        1.80268016       7.66373371       5.06505907      -0.06184604      -0.31207131       0.45922742      -0.22496741       1.12502825      -0.74702220
C        8.04809415      -0.17686450       2.02806016       0.42715498       0.35054350       0.21385139       1.00822754      -2.63935036       0.02209089
C        8.07652658       1.16823743       1.84079245       0.84802316      -0.08905042       0.81895907      -0.67404638       2.04812741       0.34633725
C        6.81449695       0.55269503       5.06403081      -0.37490306      -1.32635090      -0.59101041      -2.01724408       1.50581204       0.50622628
C        8.01902223       1.28556080       5.04446214      -0.04949817       1.35564316       0.34556478      -0.12124827       1.11390562       0.06978405
C        6.83229037       1.85527307       1.72254625       0.11402725      -1.76929103       0.18829429       0.23791342       2.13440317       0.23153725
C        6.85879737       3.28246868       1.73814651      -0.35578278       0.48601725      -0.44874769      -2.03652401       1.36300931       0.38559922
C        5.51501617       2.73665532       5.21038292      -0.37919153       0.01071783      -2.18020302       0.90428624      -1.37357149      -0.33590855
C        6.77187059       3.41129721       5.19513725      -1.45079613      -1.18313188       1.10060210      -0.80033073       2.50734338       0.46606810
C        5.55613423       4.03599275       1.78289855       0.26258206       0.20566881      -1.67013767       1.44914607      -0.92320644      -0.83180663
C        5.52999555       5.43058437       1.64838690      -1.13649121      -0.65879641      -0.20117969       1.23790127       0.53329985       1.42661104
C        4.28671640       4.82248831       5.18755943       0.62517886      -0.33985086       0.21677851      -0.39845248       2.45074431      -0.73139493
C        5.49669750       5.59910103       5.23891709      -1.55455072      -0.72073573      -0.66198426       1.15911682      -2.61445269       0.43854795
C        4.34464914       6.14731472       1.97800203       0.51157141       0.03555707       1.47818004       1.04394384       1.95485232      -1.20972020
C        4.39073615       7.61872097       1.88914596       0.46000737       0.81125318       0.88463446       0.08438738      -0.07285300       0.31545692
C        2.99779845       6.98896596       4.88597790      -0.97803850      -0.02958944       0.57477683       3.37970093       0.14071600       0.28911948
C        4.27548840       7.72382436       4.99529026       0.57100941       0.00495523      -0.63057369       0.87231042      -0.66286723       0.66969150
Li      -2.01782997     -18.02801623       0.03808368      -0.03210996      -0.84549203      -0.63079205       0.20679177      -0.01056052       0.42113917
