65
Lattice="9.859190093031751 1.2243099745877253e-17 -5.4657231986688855e-18 -4.9295950465158755 8.538309081305215 4.233250727167818e-14 -3.9313443161442645e-16 2.4342209429117815e-14 6.836130583950681" Properties=species:S:1:pos:R:3:momenta:R:3:forces:R:3 energy=-597.2891301258372 stress="0.014540994574265016 0.002390046713204653 -0.004632235988720686 0.002390046713204653 -0.0007962885853083981 -0.0003804936346632472 -0.004632235988720686 -0.0003804936346632472 -0.0036057089308763023" pbc="T T T"
C       -1.78261830       1.03294117       1.75405592       0.54670641       1.11655509       0.30069517      -0.26479205       0.69409263       0.73839333
C       -1.82822948       2.43917312       1.93258497       0.67051633       0.25873078       0.60694123       2.70577772       1.28717689      -0.92739504
C        1.62288457      -1.02961994       4.97319865      -1.58321187      -0.96325690       0.34363460       1.38206675       0.57750075       0.86181651
C        2.90650961      -0.33436391       4.89636632       0.29522973      -0.31519546       0.44461700      -1.71957643      -0.92749370       0.60877140
C       -2.99780887       3.17777052       1.96728565      -0.31327357       0.51821667      -0.43091764      -1.12062880      -0.10287609       0.21366104
C       -2.99547866       4.62622343       1.98012598       0.00710143       0.57342820       0.10694651       1.32466940      -1.35268645      -0.39251085
C        0.37788284       1.09452409       5.21757225      -0.97148379      -0.18189213       0.44725392       1.25322340       2.69983235      -0.41592756
C        1.62392681       1.78579464       5.08067718       0.03223565      -0.12201736      -0.95000457       1.16120871       0.57028631       0.45161788
C       -4.21066027       5.30987455       1.88114316       1.12232384      -0.29233857       0.55188469      -0.12112263      -1.13521059       0.34807704
C       -4.19578609       6.67662739       1.79292796       0.93561860       0.41559012       0.88601481      -1.62557383       3.94242292      -0.40849209
C       -0.78474319       3.21756553       5.10780104       0.31405802       0.34951594      -0.02719888      -0.89992901       2.78406408       0.51396221
C        0.43876282       3.92755264       5.15091463      -0.06215441      -0.65760339      -0.38121578       0.65365973       0.92441222      -0.21972626
C       -5.44927751       7.48379371       1.84846642       0.40412476      -0.48533210       0.33700719      -0.10565863      -1.83197884      -0.70513114
C       -5.48169771       8.90493874       1.66920379       0.14321221       0.20042560      -0.31338350       0.17550045      -1.86455284       0.64017750
C       -2.04551603       5.35722864       5.08648766       0.22514727       0.75567722      -0.56494765       1.64026223       0.14029904       0.33421545
C       -0.80164390       6.09698207       5.01992086      -0.50550553      -0.10936087       0.22780933       0.48253821      -1.95275215       0.42925429
C        0.66283899       1.05218906       1.70234690       2.29308634       0.21090346       0.60355768       0.51478652       0.79123617      -0.82208595
C        0.70905230       2.46398100       1.59255783      -0.39929670      -0.93899318       2.41713297      -0.99986140       1.24162143       0.47906445
C        4.11194188      -1.06138769       4.99124812      -0.13624244      -0.03181198       0.30973091       2.27932265       1.20382572      -0.95681065
C        5.44533392      -0.37751864       4.84274660      -0.83443024      -0.96629671       0.13402785      -3.67313638       0.67399778       0.39392927
C       -0.55248572       3.17352210       1.76418729      -0.73222315      -0.50553336      -0.78794797       0.57157658       0.11279448      -0.00412374
C       -0.52487674       4.60755907       1.78437983       0.30844904      -1.09351853       0.29758000       1.64510566       0.07727766      -0.78756199
C        2.88162694       1.05503438       4.99855258      -0.70044700      -0.25757529       0.50652043      -0.22892887       1.51111239      -0.55379039
C        4.10864824       1.77363090       4.86191196      -0.18399938      -0.25095904      -0.59947866       0.66045159       0.19409640       0.13209865
C       -1.73731726       5.34847450       1.89608716      -1.08755981       0.24380117       0.72199399      -0.55007740      -1.02931729      -0.18062016
C       -1.76393165       6.75533006       1.78295821      -0.19203379      -0.73862692       0.18928415       0.71428759       0.04151445      -0.58868568
C        1.68361443       3.23144601       5.14404572       0.79870816      -0.51459269       0.04717173      -0.77956842      -0.68132442      -0.28311560
C        2.90343927       3.96897842       5.09793397       0.01918346       1.22349756      -0.51457270      -0.11865816      -0.89863222       0.05945884
C       -2.99388411       7.44208010       1.59272926       0.23585238      -0.11069053       0.76560711      -0.57230570      -1.19121712       1.04427390
C       -3.07266691       8.84803806       1.62635157      -0.42063375      -0.47205428      -1.18827762       1.67536465       0.34990377       0.42265061
C        0.44447477       5.35140682       5.08119362      -0.52592932      -0.35786819       0.60495524       0.49055669       0.37200117      -0.23863302
C        1.71333059       6.04401945       5.02012171       0.62467957       1.34744162      -0.22048416      -0.69859452      -0.27570529       0.56479628
C        3.07830375       1.00999031       1.81723883      -0.21561431      -0.49642283       0.18362988       1.70721886       0.74122649       0.08350304
C        3.10349612       2.46927128       1.81211632       0.22165626       0.31264460      -0.44478987       2.53442188      -0.75145182      -0.14257990
C        6.61824247      -1.07025451       5.05946778       0.03194184       0.08458046      -0.35979349      -0.64036719      -0.61812020      -0.44252988
C        7.76268158      -0.31835637       5.18848928       0.24688434       0.60844430      -0.55389365       4.24722864       0.05867034       0.20723333
C        1.97176180       3.21164108       1.54027691      -0.38797920      -0.06967852      -0.50883554      -2.01070262      -1.76527159       0.16971591
C        1.96300257       4.61794398       1.43596816       0.19559787       0.97386548      -0.27686931       1.73045003       0.22560319       1.37097756
C        5.41670034       1.05111857       4.71101410      -0.04714968       0.57809239       1.01453827      -1.95165057       0.20363830       0.55976022
C        6.60388239       1.80698013       4.86811536      -0.83968607      -0.54913391       0.23785878       0.82381679      -0.30132111       0.59943929
C        0.79451553       5.31947771       1.53665065       1.70142939      -0.29674008      -0.28728045      -4.24317549      -0.13683990       0.87338252
C        0.74366158       6.74669167       1.67704562      -0.63109911      -0.22903977       0.56338564      -2.15210490      -1.76672804      -0.38631645
C        4.10108249       3.22875811       5.05543603      -1.16197126       0.86045178      -0.89351439       1.03436649      -1.18540609      -0.84220341
C        5.33745928       3.91679746       4.97859182      -0.07896654       0.68833481      -1.14274451       1.23920434       1.27196523       0.33605293
C       -0.49528815       7.45029420       1.74149155       0.13345936       0.13687009      -0.48372328      -1.66735868      -0.38807887       0.49229789
C       -0.56712131       8.82582433       1.95375635       0.01700297      -0.41967493       0.41307189      -0.22250625       0.83187681      -1.13418972
C        2.96826550       5.38011587       5.08741130      -0.18589933       1.08179954       0.63065512      -1.81726862      -0.78027132       0.11901952
C        4.20205888       6.05371009       5.15804644      -0.13596135      -0.32290094      -0.27661774      -1.73144430       2.44088849      -0.25218369
C        5.65076056       0.97618733       1.89794407      -0.67208528       0.72844680      -0.30004937      -1.44169163       0.51095356       0.58557318
C        5.61265778       2.37719747       1.96260086      -0.02980974      -0.25898896      -0.33643552       1.24516661       2.62819684      -0.11578974
C        9.07041984      -1.02857033       5.17847631      -1.65749170       0.45559901      -0.35739814      -1.79933441       0.10504911       0.34824845
C       10.23898791      -0.26888450       5.18969653       1.46959010       0.56186740      -0.12284716       1.36203630      -3.26470311      -0.62979890
C        4.44272521       3.15717602       1.89968224       0.08095223       0.13255685      -0.40379512      -2.65776202      -1.07917078       0.08459990
C        4.43853311       4.55528203       1.90949079      -0.63279436      -0.02499738      -0.44627597      -1.72748474       1.20219611      -0.14412733
C        7.79259159       1.10329668       5.22474034       0.20620365      -0.83450264       0.81267328       0.70918941       0.54912586      -1.14026563
C        9.04868833       1.88375911       5.18334618       0.79500278       0.13445872       0.03903085      -1.21307477      -4.62863795       0.51977855
C        3.17430735       5.29634325       1.84442676      -0.84326949      -0.30358230      -0.84895014       0.96206079       0.34816976      -1.13856287
C        3.15644541       6.74533458       1.83603268       0.06441845      -0.20794321       0.53787306       1.17864778      -0.73836550      -0.07567262
C        6.61977707       3.23354221       4.99268788       0.46492996       0.08579217      -0.01127166      -1.41258274       0.17979978      -0.00797570
C        7.81857991       3.93761878       5.18220985      -0.10894049      -0.05182710      -0.04336651       0.37562855       0.33263540      -0.92330818
C        1.89465228       7.42718313       1.74067212       1.22249331      -1.02505168      -0.19966766       3.89751539       1.95299535       0.85413434
C        1.96410122       8.86761649       1.92759784      -0.90568373       0.82637975      -1.32546631      -1.22197461      -1.86126663      -0.98925555
C        5.36878508       5.36722318       5.06151457       1.64563247       0.32956199       0.36775321       2.30315781      -1.24216305       0.28471876
C        6.65068733       6.10333095       5.12402899      -0.57478493      -1.31157808       0.14960087      -3.22781990      -0.16435358      -0.71925820
Li       5.31050817       1.75294823      -0.20470414       0.28420212      -0.02599974      -0.19841993      -0.06375568       0.14343823       0.84397425
