65
Lattice="9.859190093031751 1.2243099745877253e-17 -5.4657231986688855e-18 -4.9295950465158755 8.538309081305215 4.233250727167818e-14 -3.9313443161442645e-16 2.4342209429117815e-14 6.836130583950681" Properties=species:S:1:pos:R:3:momenta:R:3:forces:R:3 energy=-598.9315924225384 stress="0.00018735536042663445 -0.0017005233719786506 -0.0005238750768376357 -0.0017005233719786506 -0.0006332503037761064 0.0007580848493498984 -0.0005238750768376357 0.0007580848493498984 -0.0029490476787478355" pbc="T T T"
C       -0.02276779       0.24864705       1.79558871      -0.35132174      -0.77796100       0.26281013       0.33405340       0.67157760       0.22257863
C        0.01303835       1.65247816       1.83121582       1.22874500       0.23986572       0.50951028      -0.11139255       1.53091562      -0.05280602
C        0.04913386      -0.11689634       5.06648326       0.03132451      -0.39120313       1.18153856      -0.07303386      -0.28596352      -0.04629804
C        1.28005176       0.57334496       5.05944479      -0.31630810      -0.39219492       0.88790657       0.37618470      -0.27637768      -0.50961644
C       -1.21489488       2.39253939       1.76660926       0.57005555      -0.78839557      -0.93420740      -0.24278337      -0.82564376       0.07128708
C       -1.25183056       3.79247302       1.72131651      -0.51921159       1.28849158       0.52747901       1.11327584       1.30096779       0.00670540
C       -1.14889822       1.94569292       4.97709185      -1.17998457       0.05981505      -0.73927418      -0.88450369       2.97183786       0.46021499
C        0.08362531       2.66596766       5.01035745      -0.83288086       0.58952141       0.62283178      -0.47753911       0.76683429      -0.62000580
C       -2.45914524       4.53037653       1.63483518      -0.40513956       0.46634131      -0.46152893      -0.17423747       0.74558085       0.45149990
C       -2.45236835       5.97115311       1.70822063      -0.28714682       0.36768305      -0.30417719      -0.33048203      -1.03918007      -0.66203048
C       -2.43449462       4.11712359       5.17152556      -0.67907897      -1.00286523       0.25531226       1.61612460      -1.37244548      -0.42738622
C       -1.18579222       4.81675015       5.07496160       0.47840960       0.15419811       0.10508570      -1.39301610       0.36515086      -0.00341904
C       -3.70022346       6.65727073       1.67006588       1.46179834       0.51945004       0.15496615       0.44870979       0.68750909       0.43381402
C       -3.72968931       8.07944650       1.74484459      -0.27223644       0.17816744       0.29805981       0.40528129      -0.66404605      -0.14236852
C       -3.64323657       6.28427016       5.19799678      -0.93781376      -0.08985270       0.86177777      -0.38035163      -0.72656335      -0.40293067
C       -2.42206898       7.01377212       5.12677197      -0.26387241      -0.14464099      -0.05057018      -0.62862903      -2.95087899      -0.12396717
C        2.43938285       0.22348102       1.78785900      -0.39914467      -0.43197966       0.11154602      -0.03126363      -0.24176397      -0.04017478
C        2.42550631       1.61110236       1.88623141      -0.23226100      -1.11088506      -0.99503980       1.56872754       2.49015394      -0.01205833
C        2.49896096      -0.16145798       5.02462975      -0.19572012       0.68274738      -0.22282644       0.41384321       1.74316929       0.42204492
C        3.75523662       0.53160874       5.05704757      -0.02609579       0.38370121      -1.27818199      -0.63973738       1.83063951      -0.46499655
C        1.24546410       2.42671454       1.91133495      -0.19629704       0.12837030       0.23381286      -1.31271800      -2.40526429       0.08187888
C        1.20450213       3.82697098       2.01890598      -0.21056607       0.38534457       0.39793848       0.42210301       0.26757305      -1.01093700
C        1.32431551       1.97737105       4.88758624       0.17638240      -0.01175134      -0.66173273      -0.63987047       0.45920344       0.25972035
C        2.55185057       2.69282669       4.73422591       0.08205099      -0.53521214      -0.43956014       0.48998402       0.41996146       1.17379406
C       -0.03503400       4.51131922       1.82173545       0.47845968      -0.27232407       0.13862840       0.44057740       1.16584296       0.06423416
C       -0.03468442       5.98406913       1.74975138       0.85300211       0.12025370      -0.44178064       2.42481935      -2.92860872       0.46073791
C        0.01280740       4.10539566       4.97087456       0.32270065      -0.12826583      -0.40316171       1.56411833       0.10622601       0.41680767
C        1.21911594       4.87761545       4.98379383      -0.38888826      -0.31576135       0.67995325       2.35253275      -1.05012061      -0.30232957
C       -1.20333922       6.66720537       1.68746021      -0.08653253       0.45523892       0.72188159      -2.56995214       0.95779211       0.06179417
C       -1.24326582       8.08127366       1.74649103       0.19886106      -0.44094814       0.61264562       0.72556819       0.65612718       0.35059378
C       -1.20872547       6.24054041       5.01963302       1.02602884       0.44704521      -0.34311619      -0.14892147       0.14725049       0.50046009
C       -0.01158022       6.95088038       5.02675560      -0.47220350       0.78721751      -0.13843349       1.26179504       1.47349401       0.23442367
C        4.92284169       0.26772066       1.88326030       1.06363087       0.19042200       0.36855995      -0.00335632      -0.91271141      -0.92798002
C        4.95858129       1.68632170       1.86983365      -0.97083500      -0.01056783       0.27622455      -1.49153785      -0.59174839       0.08107951
C        4.95340248      -0.13772412       5.07141218      -0.45526458       0.43880072      -0.64188643       1.63278350      -0.70833506       0.30699267
C        6.22197169       0.60883127       5.14486268      -0.18944390       0.28223025       0.27636183      -1.68974358      -1.64335811      -0.72277546
C        3.69958503       2.35439552       1.86492860       0.28414044       0.51315610      -0.81518736      -0.22506355       0.10891561       0.48043618
C        3.71506615       3.77742395       1.95071440      -0.38446815       0.79125839      -0.17587003       0.22895736       1.00376445      -0.65680615
C        3.79352051       1.97592693       4.94979859       0.31065370       0.55377605      -0.28431043      -0.44134825       0.88334733      -0.23053377
C        5.01975727       2.75063255       5.02240330       0.20493354       0.48223701      -0.44764420      -1.07723318      -1.77541577      -0.05520107
C        2.48113902       4.48710203       1.88918900       0.57811319      -0.21868099       0.17190807      -0.21860346       1.43244574       0.59408286
C        2.49698686       5.93944134       1.85831088       0.13034922       0.42006994      -0.70304965      -1.88336148       0.15153541       0.04986486
C        2.54951239       4.15443458       4.87563804      -0.70383013      -0.07030696       1.21762247      -2.49599523      -0.40219980      -0.14236777
C        3.74052999       4.85045918       4.91436828       1.10631296      -0.03094796       0.24835417       1.57142037       1.30738388       0.58314047
C        1.21205789       6.64497469       1.86053042       0.70015815       0.10948174      -0.27791325       1.11765851       0.38928199      -0.67669514
C        1.22082443       8.07549404       1.75285076      -0.64368037       0.45626359      -0.02320851      -0.39588865       0.12181992       0.72957395
C        1.24835631       6.29667992       5.06876554      -0.55420060      -0.47788242      -0.03232107       0.22469819      -0.43314895      -0.30375632
C        2.47367193       7.06597623       5.05369386      -0.42535392       0.10541069       0.88507876       1.48137942      -3.21103404      -0.27833775
C        7.36104709       0.28027965       1.76230666      -0.13532893       0.44770363       0.69838312       0.25686422       0.87031460       0.32280838
C        7.40968097       1.72703706       1.78447752       0.92892681      -0.84490025      -0.22275734      -1.56083086      -1.28175817      -0.03061564
C        7.43364815      -0.09085086       5.01238541      -0.59239428      -0.49821282      -0.20452227      -0.25972890      -0.34937439       0.49947325
C        8.67747064       0.58991546       4.99753792      -0.58992593      -0.69504297      -0.54893988       0.62283894      -1.46939112       0.06598931
C        6.13293429       2.41975756       1.83772451       0.77908607      -0.31718463      -0.50007530       2.35806371       0.22845091      -0.51716508
C        6.17689372       3.83705675       1.71743850       1.38750346      -0.60075136       0.20554432      -1.31303215       0.51675780       0.32638860
C        6.23113571       1.99120252       5.05676193       0.37979272      -0.21334749      -0.85857060      -0.27852622       0.94473256       0.27534022
C        7.44545487       2.68024109       5.05481497       1.11712180       0.46304253      -0.24246328       1.36507859       0.86623316       0.15843415
C        4.94083951       4.58316356       1.82457277       0.05424965       0.03032402      -0.02538145      -0.34085991      -1.65573201      -0.03602188
C        4.92663330       5.99240386       1.77014269      -0.76714012      -0.20107063       0.35013916      -0.89461216      -0.59302651      -0.03937473
C        5.02880148       4.14802624       5.05284722      -0.27927219      -0.15173140      -0.51839141      -2.51129209      -0.37334411      -0.37215415
C        6.22314944       4.80834106       5.19082534       0.75138157       0.24404080       0.18985522       0.24118651       3.19353886       0.04217452
C        3.66031393       6.71876277       1.82436979      -0.25874061       0.93700674      -0.59677549       1.06123963      -1.13743141       0.11947410
C        3.65144808       8.13814827       1.88506469      -0.96963597      -1.37286018       0.59820614       0.27081086      -1.22108408      -0.77264955
C        3.76120992       6.29333713       4.99716580      -0.55522477      -1.00821228       0.58767658      -2.31950446       0.20993455       0.14333612
C        4.96727541       6.99829528       5.07489073      -0.05615595       0.00091282      -0.81436645       1.05704010      -0.55185905       0.31083164
Li      -2.42896009      -5.52151465       0.08541400       0.09947475      -0.17366990       0.70961571      -0.00876756       0.09154641      -0.17825116
