63
Lattice="11.130106257473757 6.470072370013405 3.8065646122174424e-16 -11.10136399067712 6.421475159613303 3.8684708832760975e-16 -3.831347669051035e-17 1.9882955852387655e-16 3.876651221629482" Properties=species:S:1:pos:R:3:momenta:R:3:forces:R:3 stress="-0.020343187843032077 0.003142513015080195 0.0010089632217292876 0.003142513015080195 -0.008174788906341345 0.0007376855448988586 0.0010089632217292876 0.0007376855448988586 0.009780225833622123" energy=-525.629563353343 pbc="T T T"
C       -0.04758586       1.45627532      -0.10774690      -0.38984422       0.78181164       0.83014243       0.43945521      -1.33595015       0.59068043
C        1.22600843       0.75405887      -0.00290579      -0.55270893      -0.22717253      -0.63625039      -0.60100858      -0.27392359       0.05353071
C        2.46111809       1.44681706      -0.04994184      -0.26921271      -1.14112704      -0.96793818       1.60727152      -0.73014864      -0.16534308
C       -0.00481047       2.86934478      -0.11984096      -0.97916407       0.74199126      -0.36576438      -0.15543057       0.37779384       0.01883438
C       -2.49227031       1.48100974      -0.17905730       0.62136476      -0.48011193      -0.02398395       0.05873405      -2.05038281       0.33345467
C       -1.29027474       0.67835956       0.04380524      -0.27538785       0.03773778      -0.34077153       0.92799868       1.99364613      -0.88641422
Li      -0.02736547       0.10470765       2.02172987       0.47598947       0.60232275       0.52355229      -0.00811565      -0.11696764      -0.25222311
C       -3.71954803       3.58776334      -0.24096085       1.40035755      -0.48987667       0.22978973       0.54513789       0.54719038       0.58556195
C       -2.44450431       2.90099153      -0.22844700       0.97876510      -0.01151539      -0.82800178      -1.42839755      -0.57007831      -0.04553838
C       -1.22342644       3.59567157      -0.12057751       1.01809858       0.48536104       0.87043798       0.05502958       0.11420171      -0.06140052
C       -3.67361930       5.01272519      -0.01214213       0.24822843      -0.22815960       0.52479816      -1.38618400       0.50285567       0.06769940
C       -6.13903436       3.55351396       0.14477898      -0.68972105       0.76384242       0.39454259      -1.27646607       1.59248487       0.47870922
C       -4.95570072       2.85439014      -0.11222532      -0.03590941       0.09828257       0.08309036       0.81458322      -0.01184905      -0.16287323
Li      -3.53142576       2.09480089       1.72860694      -0.10427381       0.06678307      -0.51387143      -0.09944588       0.01181484       0.04562594
C       -7.35438042       5.73424301       0.10840360       0.31977878      -0.11402461      -0.32381271      -0.85851243      -1.31778819       0.45549908
C       -6.15230177       5.03777219       0.35465273       0.14406811      -0.51520394      -0.58049598       0.95574965      -1.27628215      -1.08040159
C       -4.92686440       5.77561881       0.20261702       0.47359142      -0.51852109       0.46907907       1.37944358      -1.29970262       0.17383665
C       -7.31782829       7.12487845      -0.08587451      -0.89962786      -0.20496671      -0.13191915      -1.38158166       1.76772384       0.56845155
C       -9.87634846       5.75925784       0.16373632      -0.32438784       0.49793373      -0.53897669       1.35909847      -1.41516864      -0.42340263
C       -8.60253652       4.98818593       0.19668392       0.29654801       0.82990549      -0.09055445      -1.08485667       1.03100625       0.10082573
Li      -7.53675535       4.13133862       2.28881871       0.19229744      -0.53407358       0.48235851       0.12775314       0.21751682      -0.52828136
C        3.68736460       3.56123420      -0.01610821      -0.36148277       0.25919570      -0.67870349       0.56800645       1.14024818      -0.37349447
C        4.94060848       2.91075431       0.01831485      -0.52436856       0.34861246       0.18008811      -0.59352852      -2.07851600      -0.03731545
C        6.12943458       3.64456136      -0.08039374      -0.13588163       1.16979764       0.23604745       1.41338868      -1.31875432      -0.00219475
C        3.71370422       5.01642530      -0.10227549       0.08833513      -0.15008192       0.69613103       0.63648014      -0.99994458       0.45568556
C        1.23324589       3.60365864      -0.01661088       0.25428711      -0.58392844       0.20285154       0.09946487      -2.10866785      -0.53732248
C        2.45656527       2.85977103      -0.05703951       0.74031582      -0.59322916       0.90621303       0.31078503       0.12532652       0.17313991
Li       3.58438767       2.05445781       1.91350500       0.12252134      -0.02133283       0.32834144       0.12161357      -0.01409649      -0.04430914
C        0.01459888       5.68401095      -0.10916237      -0.27829810      -0.02450106      -0.50150944       0.24988171       0.65443504       0.47978342
C        1.25643253       4.98100831       0.06736579      -0.91974891       0.02377614       0.23794381      -0.07496931       1.51804657      -0.67399371
C        2.51146015       5.68578404       0.05577242       0.08403281       0.39974461      -0.86035285      -0.76653357       1.44108303      -0.19515440
C        0.02932904       7.11005472      -0.06384644      -0.05196253       0.08534935      -1.08826374      -0.03967203       0.98207684       0.08037485
C       -2.44007198       5.73552478       0.06499470      -0.35740506       0.20714980       0.15270644      -0.66206849      -0.38485940      -0.02840847
C       -1.22155992       5.00324418      -0.02512122      -0.21332428       0.12019556       1.41253510       0.22292649       0.19439394      -0.14777967
Li       0.31524717       4.23119752       1.77146578      -0.45592842       0.21144966      -0.57237148      -0.49426540      -0.01304848       0.84659050
C       -3.67036722       7.93174618       0.07615542      -0.68296574      -0.12926827      -0.07143259       0.82457315      -0.80699126       0.17737834
C       -2.45386578       7.15349085       0.18429451      -0.02014381       1.19452063       0.38947007       0.69134456       1.01420815      -0.64936052
C       -1.21151824       7.85946821       0.03383892      -2.09595736       0.03576382       0.97764520       0.40720947       0.82058694       0.01859410
C       -3.71335398       9.33737024      -0.09460736       0.13011565      -0.44831391      -0.01211389      -0.22052135      -0.19211295       0.27894625
C       -6.08909791       7.85255425       0.07732986      -0.68061030       0.51406478       0.92214816      -1.79667851       1.94127401      -0.08090358
C       -4.85301354       7.21965203       0.26765162      -0.31744889       0.54617128       1.48875528      -1.37434702      -1.49122461      -0.60427120
Li      -3.73413653       6.49928605       1.98405936       0.75077428       0.37459124       0.03707230       0.12672244      -0.16392746       0.35211681
C        7.42702872       5.74733969       0.05939452       0.14171621       0.31638766      -0.02508348      -0.72149640       0.84345710      -1.27196994
C        8.63320840       5.03673987      -0.03962423       0.59764164      -1.68041208      -0.04421320       0.89318188      -0.22182536       0.13726253
C        9.90653176       5.73147317      -0.05002133       0.57483948       0.12957254      -0.14703573      -0.84829703       0.21431033       0.16557221
C        7.38741745       7.18410282      -0.20107546      -0.86754436      -1.02165140       0.46437495       0.66211964       0.23543508       0.60313323
C        4.92810683       5.76773044      -0.04972096      -0.85368812      -0.50271954      -0.78025264       1.16807048      -1.64446713      -0.53851897
C        6.19768878       5.02261744      -0.14847298      -0.73639587      -0.82516192      -0.31073186      -1.31593473       2.36762000       0.74921084
Li       7.30213722       4.12986244       1.85976495      -0.07364459      -0.71527929      -0.24871716       0.05766074       0.19413207       0.01253083
C        3.73465657       7.88480080       0.07980844       1.37805655       0.17299586      -0.42420528      -0.19499922       0.07174444      -0.09519280
C        4.93252297       7.16560616      -0.03310496      -1.38860493      -0.99163839      -0.64021466       0.78255502       0.36184527      -0.18106417
C        6.15105174       7.89565311      -0.19223238       1.30390222       0.59827946      -0.00408232       0.60333999      -0.17459153       0.19846267
C        3.73321911       9.30033294       0.15452839       0.43825392       0.55083707      -0.58440378       0.76581735       0.66492264       0.35294079
C        1.30456818       7.82035702      -0.01872456       0.92289901      -0.06901733       0.45308731      -1.64457889       0.89974884       0.02816446
C        2.53233672       7.15248408       0.04300065       0.51275463      -0.42591475       0.78656447      -0.55143845      -1.29682565      -0.26086040
Li       3.41828852       6.55179870       1.86106016       0.56743554      -0.00870908      -0.12429840       0.33816424      -0.17934006       0.61057877
C        0.04070395      10.01186671      -0.00750812       0.28281990       0.99148668      -1.57339280       0.34450824       0.41577746      -0.20503892
C        1.29531987       9.25138654       0.02066579      -0.65041162      -0.11126754      -0.28240501      -0.94775853       0.96164459       0.51637508
C        2.50028243      10.00921663       0.26223736      -0.12227121      -0.59620385      -0.35850156      -0.12595302       0.36340205      -0.47544215
C        0.06386811      11.48060455      -0.03789655       0.05273732      -0.42020948       1.11598330      -0.45651033      -0.98768429       0.40603392
C       -2.49483844      10.02644398      -0.04363544       0.34683444       0.24013946      -1.14196881       1.34001502       0.72603889      -0.15257794
C       -1.22038883       9.34704482      -0.03800419       0.56494016       0.22234871       0.86590159       0.26446652      -1.89425992       0.20077849
Li       0.03312883       8.54563199       2.02570956       0.28399554       0.16525811      -0.44504202      -0.05300103       0.06138752      -0.15531196
